LAMMPS (29 Sep 2021 - Update 2)
OMP_NUM_THREADS environment is not set. Defaulting to 1 thread. (src/comm.cpp:98)
  using 1 OpenMP thread(s) per MPI task
# bulk water

units           metal
boundary        p p p
atom_style      charge

newton off
kspace_style pppm 0.000001

neighbor        2.0 bin
neigh_modify    every 10 delay 0 check no

read_data	system.data-bigbox
Reading data file ...
  orthogonal box = (0.0000000 0.0000000 0.0000000) to (25.260000 25.260000 25.260000)
  1 by 1 by 1 MPI processor grid
WARNING: Atom style in data file differs from currently defined atom style (src/read_data.cpp:516)
  reading atoms ...
  1584 atoms
  read_data CPU = 0.002 seconds



dielectric 78.3

velocity        all create 450.0 23456789



pair_style hybrid/overlay nequip  coul/long  10.0   gauss/cut  1.5
pair_coeff  * * coul/long
pair_coeff * *  nequip  licl-deployted.pth  O H Li Cl
pair_coeff * *   gauss/cut 0.0 1.0 1.0 0.1
pair_coeff 1 2  gauss/cut 0.1 1.325 .06 1.5



fix             1 all nvt temp 450.0 450.0 .05
timestep        0.0005
thermo_style    custom step pe ke etotal temp press vol
thermo          100
dump		1 all custom 1 LiClH2O-450K.lammpstrj id element xu yu zu
dump_modify     1 element O H Li Cl

restart 	50000 restartfile1 restartfile2


read_dump LiCl-old-500.lammpstrj  177000  x y z  box no format native
Scanning dump file ...
Reading snapshot from dump file ...
  orthogonal box = (0.0000000 0.0000000 0.0000000) to (25.260000 25.260000 25.260000)
  1584 atoms before read
  1584 atoms in snapshot
  0 atoms purged
  1584 atoms replaced
  0 atoms trimmed
  0 atoms added
  1584 atoms after read
reset_timestep 0


run             430000
PPPM initialization ...
  using 12-bit tables for long-range coulomb (src/kspace.cpp:340)
  G vector (1/distance) = 0.22568151
  grid = 9 9 9
  stencil order = 5
  estimated absolute RMS force accuracy = 8.1621662e-06
  estimated relative force accuracy = 5.6683107e-07
  using double precision FFTW3
  3d grid and FFT values/proc = 2744 729
Neighbor list info ...
  update every 10 steps, delay 0 steps, check no
  max neighbors/atom: 2000, page size: 100000
  master list distance cutoff = 12
  ghost atom cutoff = 12
  binsize = 6, bins = 5 5 5
  3 neighbor lists, perpetual/occasional/extra = 3 0 0
  (1) pair nequip, perpetual
      attributes: full, newton off
      pair build: full/bin/atomonly
      stencil: full/bin/3d
      bin: standard
  (2) pair coul/long, perpetual, half/full from (1)
      attributes: half, newton off
      pair build: halffull/newtoff
      stencil: none
      bin: none
  (3) pair gauss/cut, perpetual, copy from (2)
      attributes: half, newton off
      pair build: copy
      stencil: none
      bin: none
Per MPI rank memory allocation (min/avg/max) = 16.42 | 16.42 | 16.42 Mbytes
Step PotEng KinEng TotEng Temp Press Volume 
       0   -254646.91    92.078464   -254554.83          450    6082.5077    16117.588 
     100   -254652.44    94.483969   -254557.96    461.75603    6215.5984    16117.588 
     200   -254656.58    94.502159   -254562.08    461.84493    6218.0734    16117.588 
     300   -254655.45    90.721393   -254564.72    443.36781    5965.6153    16117.588 
     400   -254659.23    94.063076   -254565.16    459.69907    6189.9606    16117.588 
     500   -254655.25    89.175945   -254566.07    435.81499    5865.5163    16117.588 
     600   -254656.71    89.878406   -254566.83    439.24802    5911.7856    16117.588 
     700   -254656.99    90.420713   -254566.57    441.89834    5979.0744    16117.588 
     800   -254657.57    94.522345   -254563.05    461.94358     6258.642    16117.588 
     900   -254657.48     96.16852   -254561.31    469.98866    6328.9667    16117.588 
    1000   -254655.05    89.826315   -254565.23    438.99344    5897.8064    16117.588 
    1100   -254655.82    89.148387   -254566.67    435.68031    5860.9509    16117.588 
    1200   -254656.63    91.372751   -254565.26    446.55108    6061.4921    16117.588 
    1300   -254657.08    92.667181   -254564.41    452.87714    6097.9835    16117.588 
    1400   -254654.57    90.797086   -254563.77    443.73773    5975.0662    16117.588 
    1500   -254655.63    94.827541    -254560.8    463.43511    6312.5278    16117.588 
    1600   -254653.82    94.290283   -254559.53    460.80946    6235.9807    16117.588 
    1700   -254657.33    94.076411   -254563.25    459.76424    6192.3866    16117.588 
    1800   -254656.77    90.335155   -254566.43    441.48021    5943.8526    16117.588 
    1900   -254656.26    89.586261   -254566.67    437.82026     5991.738    16117.588 
    2000   -254658.96    93.544546   -254565.41    457.16494    6153.3995    16117.588 
    2100   -254657.53    94.005275   -254563.53    459.41659    6186.1467    16117.588 
    2200   -254653.78    94.814022   -254558.96    463.36904    6239.7066    16117.588 
    2300   -254657.17    96.425976   -254560.75    471.24688    6344.8094    16117.588 
    2400   -254658.58    94.007893   -254564.57    459.42938    6218.8871    16117.588 
    2500   -254657.45    91.600819   -254565.85    447.66568    6027.0417    16117.588 
    2600   -254658.12    92.297478   -254565.83    451.07035     6072.111    16117.588 
    2700   -254659.42    92.256157   -254567.16    450.86841    6114.4884    16117.588 
    2800   -254659.86    90.877655   -254568.98    444.13148    5978.4971    16117.588 
    2900   -254657.32     88.88495   -254568.43    434.39286     5879.659    16117.588 
    3000      -254659    94.245451   -254564.76    460.59036    6234.0956    16117.588 
    3100   -254656.49    91.709921   -254564.78    448.19888    6104.7412    16117.588 
    3200   -254656.95    89.639867   -254567.31    438.08224    5898.2854    16117.588 
    3300    -254661.9    90.633136   -254571.27    442.93648    6004.0001    16117.588 
    3400   -254659.19    88.815637   -254570.38    434.05412    5841.6803    16117.588 
    3500   -254658.79     93.36932   -254565.42    456.30859    6175.1369    16117.588 
    3600   -254656.69     92.93534   -254563.76    454.18767    6213.1132    16117.588 
    3700   -254656.87    94.468871    -254562.4    461.68224      6289.77    16117.588 
    3800   -254653.34    91.778184   -254561.57    448.53249    6083.5762    16117.588 
    3900   -254655.89    90.688748    -254565.2    443.20827    6017.1617    16117.588 
    4000   -254658.66    90.720809   -254567.94    443.36495    5969.1169    16117.588 
    4100   -254657.17    89.590096   -254567.58    437.83901      5893.91    16117.588 
    4200   -254658.04    92.453729   -254565.58    451.83397    6132.5058    16117.588 
    4300   -254652.85     91.83804   -254561.01    448.82502    6040.9194    16117.588 
    4400   -254655.58    97.158104   -254558.42    474.82489    6430.0087    16117.588 
    4500    -254655.5    93.818722   -254561.69    458.50488    6173.5339    16117.588 
    4600   -254657.23    92.868367   -254564.36    453.86036    6124.5853    16117.588 
    4700   -254658.04    91.606501   -254566.43    447.69345    6074.0845    16117.588 
    4800   -254658.48    91.801038   -254566.68    448.64418    6037.8151    16117.588 
    4900   -254660.15    91.989335   -254568.16    449.56441    6050.7977    16117.588 
    5000    -254661.1    91.955407   -254569.15     449.3986    6049.3445    16117.588 
    5100   -254659.32    92.488314   -254566.84    452.00299    6080.5332    16117.588 
    5200    -254656.9    91.806529   -254565.09    448.67102    6037.0146    16117.588 
    5300   -254658.86    96.539436   -254562.32    471.80138    6411.2138    16117.588 
    5400   -254656.96    94.017073   -254562.94    459.47424    6307.1689    16117.588 
    5500   -254658.29    90.281337   -254568.01     441.2172    6009.1514    16117.588 
    5600   -254660.44    91.139966    -254569.3    445.41343    6073.9254    16117.588 
    5700   -254657.93    90.390553   -254567.54    441.75095    5944.6142    16117.588 
    5800   -254656.71    93.080685   -254563.63    454.89799    6160.6699    16117.588 
    5900    -254657.4    94.494294    -254562.9    461.80649    6331.3444    16117.588 
    6000   -254656.23    91.254165   -254564.98    445.97154    6002.0982    16117.588 
    6100   -254658.83    92.866233   -254565.97    453.84993    6109.8089    16117.588 
    6200   -254657.69    89.961566   -254567.73    439.65443    6024.1025    16117.588 
    6300   -254660.27    88.462011   -254571.81     432.3259    5845.9333    16117.588 
    6400   -254663.92    90.912008   -254573.01    444.29937    5980.3183    16117.588 
    6500   -254660.96    92.371995   -254568.59    451.43452    6075.8686    16117.588 
    6600   -254659.14    94.228726   -254564.92    460.50862    6199.9178    16117.588 
    6700   -254660.91    95.518474   -254565.39     466.8118    6284.8341    16117.588 
    6800   -254661.17    91.515738   -254569.65    447.24988    6018.8595    16117.588 
    6900   -254661.02    91.349536   -254569.67    446.43763    6059.5482    16117.588 
    7000   -254659.57    91.342145   -254568.22     446.4015    6106.8286    16117.588 
    7100   -254656.12    91.202266   -254564.91     445.7179    5998.7734    16117.588 
    7200   -254653.35    89.606305   -254563.75    437.91822    5955.1638    16117.588 
    7300   -254655.31    91.037138   -254564.27     444.9109    5990.3462    16117.588 
    7400   -254655.56    91.893286   -254563.67    449.09501    6153.8567    16117.588 
    7500   -254657.34    90.366014   -254566.97    441.63102    6001.7854    16117.588 
    7600   -254656.44    86.368843   -254570.07    422.09631    5682.7801    16117.588 
    7700   -254659.24    92.791328   -254566.45    453.48386    6106.7817    16117.588 
    7800   -254656.07    91.534021   -254564.54    447.33923    6019.1715    16117.588 
    7900   -254656.09    92.457965   -254563.63    451.85467    6085.9747    16117.588 
    8000   -254656.03    91.885616   -254564.15    449.05752     6048.459    16117.588 
    8100   -254658.77    92.614435   -254566.16    452.61936    6097.3903    16117.588 
    8200   -254661.07    91.147152   -254569.93    445.44855     6074.163    16117.588 
    8300   -254660.29    91.666436   -254568.62    447.98636    6070.7438    16117.588 
    8400   -254660.55    93.671685   -254566.88    457.78629    6193.7249    16117.588 
    8500      -254655    93.820962   -254561.18    458.51583    6175.0381    16117.588 
    8600   -254655.08    94.526883   -254560.55    461.96575    6267.2991    16117.588 
    8700   -254658.27     94.01001   -254564.26    459.43973     6278.907    16117.588 
    8800   -254661.44    94.615928   -254566.82    462.40093    6229.1087    16117.588 
    8900    -254659.8    90.451873   -254569.35    442.05062     5976.319    16117.588 
    9000   -254660.68     90.54459   -254570.14    442.50375    5955.8366    16117.588 
    9100   -254659.79    91.992909    -254567.8    449.58188    6051.6822    16117.588 
    9200   -254658.08    94.484905   -254563.59    461.76061    6261.6134    16117.588 
    9300   -254657.52    93.643488   -254563.87    457.64848    6163.5046    16117.588 
    9400   -254656.22    86.876612   -254569.35    424.57784     5738.515    16117.588 
    9500   -254659.22    89.717546    -254569.5    438.46187    6069.3245    16117.588 
    9600   -254661.31    94.760114   -254566.55    463.10559    6237.1194    16117.588 
    9700   -254659.49    93.575246   -254565.91    457.31498    6157.1868    16117.588 
    9800   -254657.77    92.260774   -254565.51    450.89097    6074.5705    16117.588 
    9900   -254657.93    93.188176   -254564.74    455.42331    6134.7482    16117.588 
   10000   -254655.52    92.732587   -254562.79    453.19678    6205.9415    16117.588 
   10100   -254655.66    92.632169   -254563.03    452.70603     6118.364    16117.588 
   10200   -254656.92      90.0649   -254566.86    440.15944    5926.4131    16117.588 
   10300   -254661.09    91.755049   -254569.33    448.41943    6041.2898    16117.588 
   10400   -254657.65    89.620082   -254568.03    437.98555    5933.9215    16117.588 
   10500   -254659.32    92.890571   -254566.43    453.96888    6139.7238    16117.588 
   10600   -254660.25    95.537889   -254564.71    466.90668    6320.1206    16117.588 
   10700      -254656    95.178158   -254560.82    465.14862    6265.7072    16117.588 
   10800   -254655.05    92.063014   -254562.99    449.92449    6060.5663    16117.588 
   10900   -254659.13    92.144722   -254566.98    450.32381    6064.8634    16117.588 
   11000   -254658.71    90.525027   -254568.18    442.40814    5957.4542    16117.588 
   11100   -254657.71    90.407212   -254567.31    441.83236    6003.8006    16117.588 
   11200   -254658.44    94.230965   -254564.21    460.51956    6397.9926    16117.588 
   11300    -254655.8    91.954831   -254563.84    449.39579    6053.6809    16117.588 
   11400    -254656.3    91.857583   -254564.44    448.92052    6045.8403    16117.588 
   11500   -254658.12    92.544383   -254565.57    452.27701    6093.1167    16117.588 
   11600   -254655.91    90.632621   -254565.28    442.93397    5960.4056    16117.588 
   11700   -254656.48    92.330137   -254564.15    451.22996    6105.1766    16117.588 
   11800    -254655.2    93.471637   -254561.73    456.80863    6209.4326    16117.588 
   11900   -254653.91    92.456028   -254561.45     451.8452     6087.481    16117.588 
   12000   -254655.54    91.252159   -254564.29    445.96173    6079.7114    16117.588 
   12100   -254657.53    89.801916   -254567.73     438.8742    5910.6594    16117.588 
   12200    -254659.8    91.449023   -254568.35    446.92384    6018.3131    16117.588 
   12300   -254661.66    93.331021   -254568.33    456.12142    6140.6047    16117.588 
   12400    -254660.7    89.244794   -254571.46    436.15147    5871.9641    16117.588 
   12500   -254663.79    92.036013   -254571.76    449.79253    6057.0918    16117.588 
   12600   -254659.58    91.818917   -254567.76    448.73156    6042.2108    16117.588 
   12700   -254658.65    93.039933   -254565.61    454.69883    6151.2942    16117.588 
   12800   -254658.49    92.749032   -254565.74    453.27716    6146.0156    16117.588 
   12900   -254658.02     91.53998   -254566.48    447.36835    6023.7831    16117.588 
   13000   -254658.29    92.469877   -254565.82    451.91289    6085.7146    16117.588 
   13100   -254656.41    91.943583   -254564.47    449.34082    6071.4786    16117.588 
   13200   -254658.82     93.52573    -254565.3    457.07299    6191.3458    16117.588 
   13300   -254655.63    88.679258   -254566.95    433.38762    5834.5959    16117.588 
   13400   -254659.54    90.855978   -254568.69    444.02554    6007.1568    16117.588 
   13500   -254659.86    91.269099   -254568.59    446.04452    6004.0198    16117.588 
   13600   -254657.22    92.814547   -254564.41    453.59734    6102.7894    16117.588 
   13700   -254657.76     94.40944   -254563.35     461.3918    6214.6295    16117.588 
   13800      -254660    95.429884   -254564.57    466.37884    6281.7092    16117.588 
   13900    -254659.9    90.716013   -254569.18    443.34152    5964.3596    16117.588 
   14000   -254662.56    91.732094   -254570.83    448.30724    6037.4607    16117.588 
   14100   -254661.18    91.246032   -254569.93    445.93179    6003.6129    16117.588 
   14200   -254661.19    93.478185   -254567.71    456.84063    6242.5134    16117.588 
   14300   -254661.13    93.356784   -254567.77    456.24732    6144.2611    16117.588 
   14400   -254659.68    90.169596   -254569.51     440.6711    5933.4881    16117.588 
   14500   -254665.22    90.762183   -254574.46    443.56716     5972.798    16117.588 
   14600   -254660.98    87.276886    -254573.7    426.53403    5740.4676    16117.588 
   14700   -254660.95    90.016607   -254570.93    439.92342    5922.4809    16117.588 
   14800   -254657.33    89.973332   -254567.35    439.71193    5957.0111    16117.588 
   14900   -254659.24    93.726704   -254565.51    458.05517    6228.1505    16117.588 
   15000   -254661.04     93.80784   -254567.24    458.45169    6172.9895    16117.588 
   15100    -254659.9    89.722874   -254570.18    438.48791    5933.1978    16117.588 
   15200   -254660.88    90.239354   -254570.65    441.01202    5937.4666    16117.588 
   15300   -254659.02    93.803038   -254565.21    458.42823    6172.9275    16117.588 
   15400   -254657.39    93.598648   -254563.79    457.42934    6220.2144    16117.588 
   15500   -254657.95    92.939828   -254565.01     454.2096    6114.1108    16117.588 
   15600   -254658.84    90.880239   -254567.96    444.14411    6019.7794    16117.588 
   15700   -254660.55    90.905423   -254569.64    444.26719    6036.6803    16117.588 
   15800   -254659.98    90.627898   -254569.36    442.91088    5963.0961    16117.588 
   15900    -254656.9    92.206594   -254564.69    450.62619    6066.6059    16117.588 
   16000   -254656.36    93.311948   -254563.04     456.0282    6231.3288    16117.588 
   16100   -254654.11    90.286559   -254563.82    441.24271    5939.1154    16117.588 
   16200   -254654.12    89.743964   -254564.38    438.59098    5904.1609    16117.588 
   16300   -254658.27    93.380633   -254564.89    456.36388    6194.5934    16117.588 
   16400   -254658.06    91.145915   -254566.92    445.44251    6141.0819    16117.588 
   16500   -254657.98    90.520481   -254567.45    442.38592    5997.6904    16117.588 
   16600   -254657.04    93.179286   -254563.86    455.37986    6164.5679    16117.588 
   16700   -254657.54    95.268233   -254562.28    465.58883    6304.0238    16117.588 
   16800   -254657.88    92.472729    -254565.4    451.92682    6085.0601    16117.588 
   16900   -254657.73    91.851305   -254565.88    448.88984    6168.5369    16117.588 
   17000   -254658.76    93.577378   -254565.18     457.3254    6189.4415    16117.588 
   17100   -254655.87    90.284306   -254565.59     441.2317    5942.0834    16117.588 
   17200    -254657.6    92.954218   -254564.65    454.27993    6203.2511    16117.588 
   17300   -254659.35    93.583201   -254565.76    457.35385     6160.211    16117.588 
   17400   -254659.63    91.390118   -254568.24    446.63596    6015.3133    16117.588 
   17500   -254658.04    91.088737   -254566.95    445.16307    5993.3533    16117.588 
   17600   -254656.88    94.171857   -254562.71    460.23069    6199.1904    16117.588 
   17700   -254656.92    93.963276   -254562.96    459.21133    6229.8623    16117.588 
   17800   -254659.92    94.630836   -254565.29    462.47379    6258.8665    16117.588 
   17900    -254663.3    95.644005   -254567.65    467.42528    6346.5454    16117.588 
   18000   -254658.27    90.034586   -254568.23    440.01129    5923.3739    16117.588 
   18100   -254658.47    91.950045   -254566.52     449.3724    6090.3257    16117.588 
   18200   -254657.06    92.250208   -254564.81    450.83933    6069.9848    16117.588 
   18300   -254659.35    94.506366   -254564.84    461.86549    6315.6165    16117.588 
   18400   -254658.36    89.316038   -254569.04    436.49965    5956.7904    16117.588 
   18500   -254658.74    87.454668   -254571.29    427.40288    5752.6423    16117.588 
   18600    -254658.1    89.713893   -254568.38    438.44402    5900.7313    16117.588 
   18700   -254660.65    93.782386   -254566.87     458.3273    6321.6746    16117.588 
   18800   -254657.32    92.737719   -254564.59    453.22187    6100.4693    16117.588 
   18900   -254655.52    92.521024   -254562.99    452.16285    6153.2817    16117.588 
   19000   -254657.56    93.265005    -254564.3    455.79878    6166.3301    16117.588 
   19100    -254660.4    90.763565   -254569.64    443.57391    5996.2294    16117.588 
   19200   -254661.28    90.694661   -254570.58    443.23716    6000.0547    16117.588 
   19300    -254660.7    92.601987    -254568.1    452.55853     6094.356    16117.588 
   19400   -254658.61    92.896732   -254565.71    453.99898    6114.0842    16117.588 
   19500   -254657.18    91.501309   -254565.68    447.17936    6116.3413    16117.588 
   19600   -254658.93    91.908478   -254567.02    449.16925    6049.3552    16117.588 
   19700   -254661.39    90.369569   -254571.02     441.6484    6007.2599    16117.588 
   19800   -254661.75    89.827151   -254571.92    438.99752    5910.8994    16117.588 
   19900   -254661.79    92.876717   -254568.91    453.90117    6113.4926    16117.588 
   20000   -254658.64    92.948819   -254565.69    454.25354    6115.1519    16117.588 
   20100   -254657.72    92.332059   -254565.39    451.23935    6076.8748    16117.588 
   20200   -254657.78    91.246474   -254566.53    445.93395    6002.4174    16117.588 
   20300   -254660.66     93.38429   -254567.28    456.38175     6213.539    16117.588 
   20400   -254658.49    91.091771    -254567.4     445.1779    6040.0667    16117.588 
   20500   -254660.33    93.465577   -254566.86    456.77901    6153.1068    16117.588 
   20600   -254658.72    92.638112   -254566.09    452.73507    6097.7525    16117.588 
   20700   -254658.64    93.434485    -254565.2    456.62706    6189.1377    16117.588 
   20800   -254657.85    93.919766   -254563.93    458.99869    6182.7987    16117.588 
   20900   -254654.67    92.267127   -254562.41    450.92202    6073.6242    16117.588 
   21000   -254652.97    91.903095   -254561.07    449.14295    6047.0366    16117.588 
   21100   -254656.29     94.74089   -254561.55    463.01164     6272.523    16117.588 
   21200    -254653.9    88.672993   -254565.23      433.357    5832.5161    16117.588 
   21300    -254657.5    90.743848   -254566.76    443.47755    5994.0969    16117.588 
   21400   -254659.35    91.094997   -254568.25    445.19366    6089.5235    16117.588 
   21500   -254659.64    92.724602   -254566.92    453.15777    6204.8684    16117.588 
   21600   -254659.62    95.864071   -254563.75    468.50077    6308.5143    16117.588 
   21700   -254660.89    95.950652   -254564.94    468.92391    6347.0555    16117.588 
   21800   -254659.02    90.134848   -254568.88    440.50128    5930.7741    16117.588 
   21900    -254659.3    91.190878   -254568.11    445.66224    6000.4773    16117.588 
   22000   -254659.59    93.400458   -254566.19    456.46076    6146.9061    16117.588 
   22100   -254658.37    93.406259   -254564.97    456.48911    6239.8307    16117.588 
   22200   -254660.67    90.750216   -254569.92    443.50867    5971.1756    16117.588 
   22300   -254661.52    88.897797   -254572.63    434.45564    5847.8317    16117.588 
   22400   -254658.71    88.553288   -254570.15    432.77198    5825.4627    16117.588 
   22500   -254658.61    92.595695   -254566.01    452.52778    6128.1014    16117.588 
   22600   -254658.31     93.27937   -254565.03    455.86899     6138.643    16117.588 
   22700   -254657.78     91.96267   -254565.82     449.4341    6113.0911    16117.588 
   22800   -254658.24    89.374039   -254568.86    436.78311    5880.6333    16117.588 
   22900   -254660.24    89.568365   -254570.67     437.7328    5923.4099    16117.588 
   23000   -254658.02    90.498283   -254567.53    442.27744    5952.8142    16117.588 
   23100   -254656.26    92.855893   -254563.41     453.7994    6110.9341    16117.588 
   23200    -254659.7    95.027452   -254564.67     464.4121    6280.1069    16117.588 
   23300   -254658.21    90.625119   -254567.58     442.8973    6015.5435    16117.588 
   23400   -254659.29    91.586897    -254567.7    447.59765    6111.9683    16117.588 
   23500   -254657.55    91.606164   -254565.94    447.69181    6093.2151    16117.588 
   23600   -254655.81    94.585398   -254561.22    462.25173    6357.9987    16117.588 
   23700   -254654.67    95.720013   -254558.95    467.79675    6338.6587    16117.588 
   23800   -254657.85     95.98649   -254561.86    469.09905    6383.1888    16117.588 
   23900   -254655.34    89.841897   -254565.49    439.06959    5936.9862    16117.588 
   24000   -254657.87    91.770853    -254566.1    448.49666    6039.5617    16117.588 
   24100   -254656.71    91.115111   -254565.59    445.29196    5997.3808    16117.588 
   24200   -254656.53    92.359462   -254564.17    451.37327    6151.9273    16117.588 
   24300   -254654.97    93.339862   -254561.63    456.16462    6139.1954    16117.588 
   24400   -254656.78    96.453753   -254560.33    471.38263    6430.4055    16117.588 
   24500      -254655    90.990874   -254564.01     444.6848     6029.303    16117.588 
   24600   -254657.13    90.535957    -254566.6    442.46156    5983.7879    16117.588 
   24700   -254660.52    93.455973   -254567.06    456.73207    6151.9266    16117.588 
   24800   -254659.92    93.010416   -254566.91    454.55458    6123.0459    16117.588 
   24900   -254660.15    93.691558   -254566.46    457.88341    6166.0112    16117.588 
   25000   -254658.65     94.14996    -254564.5    460.12368    6198.0625    16117.588 
   25100   -254655.29    91.801278   -254563.49    448.64535    6065.8717    16117.588 
   25200   -254658.54    92.762339   -254565.77    453.34219    6104.0146    16117.588 
   25300   -254662.16     93.29134   -254568.87    455.92749    6143.1502    16117.588 
   25400   -254659.68    89.349076   -254570.33    436.66111    5907.3745    16117.588 
   25500   -254656.75    92.039363   -254564.71    449.80891     6058.451    16117.588 
   25600   -254655.23    93.079238   -254562.15    454.89092    6126.4721    16117.588 
   25700   -254654.26    91.782256   -254562.48    448.55239     6066.479    16117.588 
   25800   -254656.43    91.520446   -254564.91    447.27289    6024.3452    16117.588 
   25900   -254658.86    89.859974      -254569    439.15793    6002.4078    16117.588 
   26000   -254660.65    90.882356   -254569.77    444.15446    5983.2889    16117.588 
   26100   -254658.99    91.473117   -254567.52    447.04158    6068.8096    16117.588 
   26200   -254656.97    92.334508   -254564.64    451.25132    6079.2391    16117.588 
   26300   -254659.93    94.820501   -254565.11    463.40071    6245.5288    16117.588 
   26400   -254656.35    89.465328   -254566.88    437.22925    5890.5777    16117.588 
   26500   -254657.24    90.155725   -254567.09    440.60331    5960.1991    16117.588 
   26600   -254657.07    95.185689   -254561.89    465.18543    6354.4077    16117.588 
   26700   -254655.33    94.408151   -254560.92    461.38549    6218.8256    16117.588 
   26800   -254654.37    91.362271   -254563.01    446.49987    6049.4463    16117.588 
   26900   -254655.54    91.342556    -254564.2    446.40352    6014.7558    16117.588 
   27000   -254656.87    92.027563   -254564.84    449.75124    6110.8586    16117.588 
   27100   -254660.05    91.683333   -254568.37    448.06894    6036.5899    16117.588 
   27200   -254661.04    89.557145   -254571.49    437.67797    5948.3096    16117.588 
   27300   -254657.69    88.934779   -254568.75    434.63638    5853.8231    16117.588 
   27400   -254657.44    92.360135   -254565.08    451.37656    6080.2813    16117.588 
   27500   -254660.11    95.014735   -254565.09    464.34995    6292.3945    16117.588 
   27600   -254657.95    90.614338   -254567.33    442.84461    5964.9206    16117.588 
   27700   -254659.85    90.309293   -254569.54    441.35382    5942.3019    16117.588 
   27800   -254658.35    92.111135   -254566.24    450.15967    6116.8325    16117.588 
   27900   -254657.18    94.524402   -254562.65    461.95363    6246.8141    16117.588 
   28000   -254658.95    95.450868    -254563.5     466.4814    6355.9774    16117.588 
   28100   -254660.16    93.687336   -254566.47    457.86277    6309.1188    16117.588 
   28200   -254658.14    90.348192   -254567.79    441.54392     5994.348    16117.588 
   28300   -254660.73    94.550668   -254566.18      462.082    6446.7008    16117.588 
   28400    -254658.3    94.080315   -254564.22    459.78331    6216.9112    16117.588 
   28500   -254657.62     89.86713   -254567.75    439.19291     5912.075    16117.588 
   28600   -254656.99    86.361826   -254570.63    422.06201    5703.4864    16117.588 
   28700   -254660.21     92.86033   -254567.35    453.82108    6113.6385    16117.588 
   28800   -254658.78    93.432258   -254565.35    456.61617      6151.13    16117.588 
   28900    -254658.5    94.436438   -254564.06    461.52374    6307.8946    16117.588 
   29000   -254657.65     90.87648   -254566.77    444.12574    5980.7496    16117.588 
   29100   -254661.89    90.353766   -254571.54    441.57116     5947.789    16117.588 
   29200   -254661.81    88.171699   -254573.64     430.9071    5838.4006    16117.588 
   29300   -254658.91    90.457988   -254568.46    442.08051    5984.8895    16117.588 
   29400   -254658.58    93.261256   -254565.32    455.78046    6139.0195    16117.588 
   29500   -254656.14    90.874634   -254565.26    444.11672    5980.6473    16117.588 
   29600   -254658.99    92.022718   -254566.96    449.72756    6058.4855    16117.588 
   29700   -254660.96    90.939465   -254570.02    444.43355    5985.0545    16117.588 
   29800   -254662.89    91.469435   -254571.42    447.02359    6053.4334    16117.588 
   29900   -254663.78    91.274848   -254572.51    446.07262    6032.3521    16117.588 
   30000   -254660.09    90.833331   -254569.26    443.91486    6016.3474    16117.588 
   30100   -254658.16    92.381088   -254565.78    451.47896    6081.8012    16117.588 
   30200   -254657.07    92.420999   -254564.65    451.67401     6084.528    16117.588 
   30300   -254655.12    91.218489    -254563.9    445.79718    6085.3341    16117.588 
   30400   -254655.77    93.589458   -254562.18    457.38443    6303.8439    16117.588 
   30500   -254653.61    93.406062    -254560.2    456.48815    6172.4275    16117.588 
   30600   -254654.42    93.620701    -254560.8    457.53712    6163.6179    16117.588 
   30700   -254657.16    91.837023   -254565.32    448.82004    6043.1635    16117.588 
   30800   -254656.94    89.887813   -254567.05    439.29399    5943.7181    16117.588 
   30900   -254656.87    92.251165   -254564.62    450.84401    6102.9212    16117.588 
   31000   -254658.04    94.878503   -254563.16    463.68417    6243.4902    16117.588 
   31100   -254656.31    93.006855    -254563.3    454.53717    6121.9282    16117.588 
   31200   -254657.75    91.983782   -254565.77    449.53727    6054.7901    16117.588 
   31300   -254656.44    89.860852   -254566.58    439.16223     5950.954    16117.588 
   31400   -254654.09    89.599286   -254564.49    437.88392    5895.2894    16117.588 
   31500   -254656.72    94.264381   -254562.46    460.68287    6203.3431    16117.588 
   31600   -254658.72    94.646187   -254564.07    462.54881    6228.5352    16117.588 
   31700   -254657.21    88.559557   -254568.65    432.80262    5825.7213    16117.588 
   31800   -254659.65    91.372715   -254568.27     446.5509    6011.7233    16117.588 
   31900   -254659.21    91.976511   -254567.23    449.50174    6048.5232    16117.588 
   32000   -254659.43    92.488684   -254566.94     452.0048    6085.1709    16117.588 
   32100   -254658.67    92.320128   -254566.35    451.18104    6129.6695    16117.588 
   32200   -254657.16    95.164597   -254561.99    465.08235     6286.304    16117.588 
   32300   -254655.59    92.793762    -254562.8    453.49576    6240.4823    16117.588 
   32400   -254657.67    90.723552   -254566.95    443.37836     5961.448    16117.588 
   32500   -254657.83    90.526445   -254567.31    442.41507    6030.5695    16117.588 
   32600   -254654.89    89.647153   -254565.24    438.11785    5893.3439    16117.588 
   32700   -254656.38    93.975118    -254562.4     459.2692    6301.0712    16117.588 
   32800   -254655.78    92.950812   -254562.83    454.26328    6173.5412    16117.588 
   32900   -254658.39    94.372561   -254564.02    461.21157    6240.7414    16117.588 
   33000   -254656.43    91.368313   -254565.06    446.52939    6008.8284    16117.588 
   33100   -254656.48    91.395804   -254565.08    446.66375    6041.6197    16117.588 
   33200   -254657.12    93.212906   -254563.91    455.54417    6165.7396    16117.588 
   33300   -254652.54    94.370801   -254558.17    461.20296     6210.913    16117.588 
   33400   -254653.61    94.970098   -254558.64    464.13181    6250.2143    16117.588 
   33500   -254656.72    94.298364   -254562.42    460.84895    6207.2644    16117.588 
   33600   -254657.61    91.583616   -254566.03    447.58161    6071.2559    16117.588 
   33700   -254660.99    93.005125   -254567.99    454.52872    6120.7411    16117.588 
   33800   -254661.71    92.798286   -254568.91    453.51787    6306.3869    16117.588 
   33900   -254662.43    93.077613   -254569.36    454.88298    6171.0712    16117.588 
   34000    -254660.9    91.919677   -254568.98    449.22398    6051.0264    16117.588 
   34100   -254661.32    95.084204   -254566.23    464.68946    6310.8632    16117.588 
   34200   -254657.47    92.708166   -254564.76    453.07744    6101.5811    16117.588 
   34300   -254654.63    89.993176   -254564.64    439.80891    5923.0983    16117.588 
   34400   -254655.26    88.014136   -254567.25    430.13707    5791.5245    16117.588 
   34500   -254663.42    93.929205   -254569.49    459.04482     6183.778    16117.588 
   34600   -254662.05    90.259024   -254571.79    441.10815      5940.27    16117.588 
   34700      -254665    93.234384   -254571.76    455.64914    6137.1858    16117.588 
   34800   -254659.75    92.465169   -254567.29    451.88988    6088.2004    16117.588 
   34900   -254658.57    94.201122   -254564.37    460.37372    6199.2881    16117.588 
   35000   -254657.38    91.619509   -254565.76    447.75702    6189.3875    16117.588 
   35100   -254657.78     89.26388   -254568.52    436.24474    5933.4573    16117.588 
   35200   -254659.27    91.586043   -254567.69    447.59347    6051.4928    16117.588 
   35300   -254660.23    94.354519   -254565.88    461.12339     6236.306    16117.588 
   35400   -254659.21    93.114146    -254566.1    455.06152    6228.6548    16117.588 
   35500   -254661.01    93.615609   -254567.39    457.51224    6164.1259    16117.588 
   35600    -254657.8     89.78547   -254568.01    438.79383    6008.0718    16117.588 
   35700   -254656.91    92.206459   -254564.71    450.62553    6092.6971    16117.588 
   35800   -254655.18    94.320454   -254560.86    460.95691    6203.8256    16117.588 
   35900   -254657.25    95.370537   -254561.88    466.08881    6280.3709    16117.588 
   36000   -254657.28    92.145206   -254565.14    450.32617    6118.5616    16117.588 
   36100   -254660.04    93.532221   -254566.51    457.10471    6202.4859    16117.588 
   36200   -254657.09    90.066064   -254567.02    440.16512    5972.8226    16117.588 
   36300   -254658.09     92.83676   -254565.26     453.7059    6200.4033    16117.588 
   36400    -254654.6    89.162318   -254565.44     435.7484    5868.0954    16117.588 
   36500   -254656.41     90.83559   -254565.58     443.9259    5979.5434    16117.588 
   36600   -254658.51    93.853519   -254564.66    458.67494     6223.881    16117.588 
   36700   -254658.53    94.182968   -254564.35    460.28499     6196.332    16117.588 
   36800   -254658.72    93.147751   -254565.58    455.22575    6130.6761    16117.588 
   36900   -254657.18    89.145877   -254568.03    435.66805    5866.8562    16117.588 
   37000    -254659.7    91.164739   -254568.54     445.5345    6026.1555    16117.588 
   37100   -254658.15    92.650948    -254565.5    452.79781    6174.2692    16117.588 
   37200   -254656.45    93.829545   -254562.62    458.55777    6178.1004    16117.588 
   37300   -254655.81    94.128226   -254561.68    460.01746    6195.5307    16117.588 
   37400   -254660.25    93.607393   -254566.64    457.47208    6162.4865    16117.588 
   37500   -254660.45    91.846696    -254568.6    448.86732    6044.8318    16117.588 
   37600   -254659.33    92.054573   -254567.28    449.88324    6058.0977    16117.588 
   37700   -254658.55    92.566856   -254565.98    452.38684    6153.5253    16117.588 
   37800   -254657.85    92.914612   -254564.94    454.08637    6144.7678    16117.588 
   37900   -254656.97    91.990937   -254564.98    449.57224    6092.9917    16117.588 
   38000   -254654.66     92.54586   -254562.12    452.28423     6089.909    16117.588 
   38100   -254654.76    94.747623   -254560.01    463.04454    6236.3846    16117.588 
   38200    -254654.5    91.912493   -254562.58    449.18888    6050.5909    16117.588 
   38300   -254656.59    90.462233   -254566.13    442.10126    5952.9276    16117.588 
   38400   -254655.73    90.052874   -254565.68    440.10066    5926.7738    16117.588 
   38500    -254656.3    91.114905   -254565.18    445.29095    6070.7232    16117.588 
   38600    -254654.1    88.467496   -254565.63    432.35271     5821.338    16117.588 
   38700    -254658.1    93.296452    -254564.8    455.95247    6140.1479    16117.588 
   38800   -254654.17    92.716381   -254561.46    453.11759    6169.7731    16117.588 
   38900   -254653.39    94.998359    -254558.4    464.26993    6315.2981    16117.588 
   39000   -254653.44    92.184838   -254561.25    450.51986    6064.8056    16117.588 
   39100   -254657.23    93.391861   -254563.84    456.41875    6145.4526    16117.588 
   39200   -254658.51    93.019729   -254565.49    454.60009    6121.4114    16117.588 
   39300   -254658.46    91.769702   -254566.69    448.49104    6038.7546    16117.588 
   39400   -254659.58    95.195065   -254564.39    465.23125    6264.6559    16117.588 
   39500   -254655.23     94.57702   -254560.65    462.21078    6272.7345    16117.588 
   39600   -254655.48    94.353031   -254561.13    461.11612    6310.9478    16117.588 
   39700   -254656.59    91.307309   -254565.28    446.23126    6005.2064    16117.588 
   39800   -254656.76    90.843388   -254565.91    443.96401    6068.6787    16117.588 
   39900   -254656.33    90.463412   -254565.87    442.10702    6040.0962    16117.588 
   40000   -254658.96    93.143533   -254565.81    455.20514    6185.1876    16117.588 
   40100   -254658.29    89.484564    -254568.8    437.32325     5916.359    16117.588 
   40200   -254661.12    87.831074   -254573.28    429.24243     5836.929    16117.588 
   40300   -254664.29    92.577498   -254571.71    452.43884    6093.6156    16117.588 
   40400    -254660.1    91.537064   -254568.56     447.3541    6153.3751    16117.588 
   40500   -254658.33    92.609771   -254565.72    452.59657    6095.4858    16117.588 
   40600   -254659.41    94.463169   -254564.95    461.65438    6217.5903    16117.588 
   40700   -254658.68    91.943781   -254566.73    449.34178    6052.6961    16117.588 
   40800   -254660.25    91.469791   -254568.78    447.02533    6057.7891    16117.588 
   40900   -254657.89    89.662916   -254568.23    438.19488    6085.2245    16117.588 
   41000   -254656.73    93.480583   -254563.25    456.85234    6152.3354    16117.588 
   41100   -254656.72     93.91822   -254562.81    458.99114    6233.5714    16117.588 
   41200   -254658.79     92.64641   -254566.15    452.77563    6171.9158    16117.588 
   41300   -254658.95    90.451317    -254568.5    442.04791    5954.8087    16117.588 
   41400   -254660.37    92.135501   -254568.24    450.27874    6142.3918    16117.588 
   41500   -254657.47     91.87141   -254565.59     448.9881    6080.7444    16117.588 
   41600   -254653.98    93.269813   -254560.71    455.82228     6140.772    16117.588 
   41700   -254652.75    91.166759   -254561.58    445.54437    5999.8233    16117.588 
   41800   -254656.89    92.233894   -254564.66    450.75961    6106.9114    16117.588 
   41900   -254658.08    91.522342   -254566.55    447.28215    6050.3138    16117.588 
   42000   -254656.47    90.357618   -254566.12    441.58999    5947.7233    16117.588 
   42100   -254657.11    93.615857    -254563.5    457.51345    6164.9294    16117.588 
   42200   -254655.67    92.977512   -254562.69    454.39377    6143.4341    16117.588 
   42300   -254657.19    91.152569   -254566.03    445.47502    5999.8982    16117.588 
   42400   -254659.72     90.87786   -254568.84    444.13248    6199.7682    16117.588 
   42500   -254656.09    88.313759   -254567.78    431.60137    5979.3728    16117.588 
   42600   -254658.04    93.592946   -254564.45    457.40148     6161.971    16117.588 
   42700   -254655.79    93.303679   -254562.49    455.98779    6141.8154    16117.588 
   42800   -254657.96    94.111442   -254563.84    459.93544    6197.4673    16117.588 
   42900    -254660.3    93.683207   -254566.61     457.8426    6218.1549    16117.588 
   43000   -254659.89    91.152931   -254568.74    445.47679    6128.4606    16117.588 
   43100   -254659.97    91.351932   -254568.62    446.44934    6048.5894    16117.588 
   43200   -254657.28    90.990245   -254566.29    444.68173    5992.2909    16117.588 
   43300   -254654.83    93.767555   -254561.06    458.25481    6174.4644    16117.588 
   43400   -254654.67    93.194147   -254561.47    455.45249    6206.3697    16117.588 
   43500   -254653.63    90.849882   -254562.78    443.99575    5983.0676    16117.588 
   43600    -254658.3    93.557581   -254564.74    457.22864    6189.6771    16117.588 
   43700   -254658.96    91.220062   -254567.74    445.80487    6045.4667    16117.588 
   43800   -254659.45    91.168383   -254568.28    445.55231    6003.4306    16117.588 
   43900   -254659.42    93.683124   -254565.74    457.84219    6202.8444    16117.588 
   44000   -254653.18    92.168309   -254561.01    450.43908    6067.0066    16117.588 
   44100   -254656.76    95.234582   -254561.52    465.42438      6321.96    16117.588 
   44200   -254657.69     91.10806   -254566.59     445.2575    6000.6394    16117.588 
   44300   -254660.64    92.098341   -254568.54    450.09714    6064.2417    16117.588 
   44400   -254659.54    91.569625   -254567.97    447.51323    6031.2911    16117.588 
   44500   -254660.72    94.686322   -254566.04    462.74496    6238.1367    16117.588 
   44600   -254658.99    95.054856   -254563.94    464.54603    6264.4036    16117.588 
   44700   -254658.08    91.831431   -254566.25    448.79271    6047.8492    16117.588 
   44800   -254660.75    91.081402   -254569.67    445.12722    6100.5376    16117.588 
   44900   -254659.94    89.699239   -254570.24     438.3724    5907.4501    16117.588 
   45000   -254659.88    92.334752   -254567.55    451.25251    6117.8393    16117.588 
   45100   -254658.68    96.167663   -254562.52    469.98447    6414.3623    16117.588 
   45200   -254659.01     94.99646   -254564.01    464.26064     6296.741    16117.588 
   45300   -254654.99    89.541927   -254565.44    437.60359     5943.761    16117.588 
   45400   -254655.53    91.259942   -254564.27    445.99977    6008.6387    16117.588 
   45500   -254659.79    95.056089   -254564.74    464.55206    6295.9521    16117.588 
   45600    -254659.3    89.166911   -254570.13    435.77084    5872.0834    16117.588 
   45700   -254659.35    88.547921    -254570.8    432.74575     5830.565    16117.588 
   45800   -254659.81    92.001454   -254567.81    449.62364    6156.2398    16117.588 
   45900   -254659.36    92.522483   -254566.84    452.16998    6121.3522    16117.588 
   46000   -254660.14    92.755892   -254567.39    453.31068    6107.2788    16117.588 
   46100    -254663.1    93.251228   -254569.84    455.73145    6143.4629    16117.588 
   46200   -254660.96    89.089906   -254571.87    435.39451     5867.061    16117.588 
   46300   -254661.56    92.506571   -254569.05    452.09222    6094.9093    16117.588 
   46400   -254660.89    95.629666   -254565.26    467.35521    6325.2305    16117.588 
   46500   -254657.98    92.721833   -254565.26    453.14423    6104.4092    16117.588 
   46600   -254658.43    90.901374   -254567.53     444.2474    6091.3021    16117.588 
   46700   -254658.89    89.241509   -254569.64    436.13541    5904.3544    16117.588 
   46800   -254660.02    92.192936   -254567.83    450.55944    6108.6435    16117.588 
   46900   -254658.45    93.667781   -254564.78    457.76721    6170.8841    16117.588 
   47000   -254656.22    91.054335   -254565.16    444.99494    5997.7641    16117.588 
   47100   -254658.54    90.525213   -254568.01    442.40905    5998.7985    16117.588 
   47200   -254660.87    91.711508   -254569.16    448.20664    6136.5253    16117.588 
   47300   -254659.32     90.14782   -254569.18    440.56468    5939.7403    16117.588 
   47400   -254659.34    92.891246   -254566.45    453.97217    6173.9308    16117.588 
   47500   -254659.17    94.139156   -254565.03    460.07088    6289.2173    16117.588 
   47600   -254660.76    92.643101   -254568.12    452.75946    6289.7507    16117.588 
   47700   -254661.96    91.472477   -254570.49    447.03846    6026.5097    16117.588 
   47800   -254658.75    89.304805   -254569.44    436.44475    6014.4821    16117.588 
   47900    -254657.2    92.567319   -254564.64     452.3891     6153.312    16117.588 
   48000    -254658.5    94.262083   -254564.24    460.67164    6207.6623    16117.588 
   48100   -254657.62    91.040681   -254566.58    444.92821      5989.65    16117.588 
   48200   -254660.61    92.420212   -254568.19    451.67017    6103.8158    16117.588 
   48300   -254660.08    90.560747   -254569.52    442.58271    5966.0787    16117.588 
   48400   -254659.76    92.979722   -254566.78    454.40457    6126.6485    16117.588 
   48500   -254654.41    91.571654   -254562.84    447.52315    6100.3944    16117.588 
   48600   -254654.55    91.995241   -254562.55    449.59328    6089.5597    16117.588 
   48700   -254658.86    92.234358   -254566.62    450.76187    6115.8425    16117.588 
   48800   -254659.62    91.072473   -254568.55    445.08358    5997.2062    16117.588 
   48900   -254659.16    90.757939    -254568.4    443.54641    6069.3656    16117.588 
   49000   -254661.46    94.304002   -254567.15     460.8765    6213.0016    16117.588 
   49100   -254658.38    93.231105   -254565.15    455.63311    6142.3613    16117.588 
   49200   -254656.34    94.764381   -254561.58    463.12644    6355.8061    16117.588 
   49300   -254658.25    97.258473   -254560.99    475.31541    6583.7496    16117.588 
   49400   -254657.68    91.340366   -254566.34    446.39281    6067.0757    16117.588 
   49500    -254660.3    92.455768   -254567.84    451.84394    6088.9512    16117.588 
   49600   -254660.99    93.023803   -254567.97       454.62    6125.2823    16117.588 
   49700   -254659.12    90.879518   -254568.24    444.14059    6009.8487    16117.588 
   49800   -254659.06    92.787042   -254566.27    453.46292     6314.164    16117.588 
   49900   -254657.33    94.164138   -254563.17    460.19297    6232.5103    16117.588 
   50000   -254654.65     91.51149   -254563.14    447.22912    6064.5718    16117.588 
   50100   -254659.39    92.106497   -254567.28      450.137    6159.4948    16117.588 
   50200   -254661.72    91.628344   -254570.09     447.8002    6033.9667    16117.588 
   50300   -254661.51    91.998446   -254569.51    449.60894    6102.5062    16117.588 
   50400   -254660.08    91.818213   -254568.26    448.72812    6040.9636    16117.588 
   50500   -254658.33    92.791371   -254565.54    453.48407    6111.3208    16117.588 
   50600   -254657.32    96.355308   -254560.97    470.90152    6389.1036    16117.588 
   50700   -254656.55    95.192898   -254561.36    465.22066    6294.3542    16117.588 
   50800   -254656.44    89.923849   -254566.51     439.4701    5919.9165    16117.588 
   50900   -254657.65    92.145558   -254565.51    450.32789      6065.63    16117.588 
   51000   -254657.16    92.824036   -254564.34    453.64371    6135.8237    16117.588 
   51100    -254658.2    92.258587   -254565.94    450.88028    6155.1246    16117.588 
   51200   -254660.81    91.433189   -254569.37    446.84645    6046.2216    16117.588 
   51300   -254659.17    88.693783   -254570.48     433.4586    5838.2087    16117.588 
   51400   -254659.77    94.004304   -254565.77    459.41184    6189.2843    16117.588 
   51500   -254657.11    93.457657   -254563.65     456.7403    6230.0102    16117.588 
   51600   -254658.55    92.813803   -254565.74     453.5937    6111.9124    16117.588 
   51700   -254659.73    91.508892   -254568.22    447.21642    6069.9288    16117.588 
   51800   -254660.41    92.018013    -254568.4    449.70457    6089.5948    16117.588 
   51900   -254657.47    90.256393   -254567.21    441.09529    6030.6989    16117.588 
   52000   -254659.59    94.818518   -254564.77    463.39102    6290.4742    16117.588 
   52100    -254654.2    89.945134   -254564.26    439.57412    6038.7263    16117.588 
   52200   -254657.05    91.654863   -254565.39     447.9298    6071.5208    16117.588 
   52300   -254660.92       91.473   -254569.45    447.04101    6022.7437    16117.588 
   52400   -254663.48    90.836186   -254572.64    443.92882    6024.7554    16117.588 
   52500   -254663.11     91.75627   -254571.36    448.42539    6035.5624    16117.588 
   52600   -254660.29    90.551347   -254569.74    442.53677    5962.2961    16117.588 
   52700   -254658.54    90.510076   -254568.03    442.33507    6045.3768    16117.588 
   52800   -254657.95    90.792788   -254567.15    443.71673    6155.3838    16117.588 
   52900   -254658.42     92.09255   -254566.32    450.06884    6064.6992    16117.588 
   53000   -254657.74    95.331404   -254562.41    465.89756    6275.7545    16117.588 
   53100   -254657.41    96.443694   -254560.97    471.33347    6469.9777    16117.588 
   53200   -254658.36    92.416074   -254565.94    451.64995    6083.5595    16117.588 
   53300   -254659.87    91.941703   -254567.93    449.33163    6052.4246    16117.588 
   53400   -254661.52    91.999479   -254569.52    449.61399    6083.3993    16117.588 
   53500   -254661.53     90.27049   -254571.26    441.16419    5942.6785    16117.588 
   53600   -254659.95    88.276281   -254571.67    431.41821    5810.1149    16117.588 
   53700   -254660.13    93.873016   -254566.25    458.77022    6181.6404    16117.588 
   53800   -254659.23    94.228014      -254565    460.50514     6291.028    16117.588 
   53900   -254660.52    93.866287   -254566.65    458.73734    6211.0715    16117.588 
   54000   -254662.62    91.964543   -254570.66    449.44325    6084.7517    16117.588 
   54100   -254661.41    90.795682   -254570.61    443.73087    6008.0264    16117.588 
   54200   -254661.35    91.257104    -254570.1     445.9859    6007.5879    16117.588 
   54300   -254658.85    89.711869   -254569.14    438.43413    5936.7111    16117.588 
   54400   -254659.15    93.997686   -254565.15     459.3795    6189.9908    16117.588 
   54500   -254654.33    92.467113   -254561.86    451.89938    6113.8948    16117.588 
   54600   -254658.66    95.415704   -254563.24    466.30955    6320.4502    16117.588 
   54700   -254657.96    92.019202   -254565.94    449.71038    6058.5073    16117.588 
   54800   -254658.26    91.072052   -254567.19    445.08153    5996.5553    16117.588 
   54900   -254658.25     90.22333   -254568.02    440.93371    5938.8554    16117.588 
   55000   -254658.69    91.237162   -254567.45    445.88844    6047.9762    16117.588 
   55100   -254657.26     92.83997   -254564.42    453.72158      6153.85    16117.588 
   55200    -254657.6     93.39514    -254564.2    456.43477    6386.3389    16117.588 
   55300   -254658.65    92.115237   -254566.53    450.17971    6059.8635    16117.588 
   55400   -254658.11    88.120441   -254569.99     430.6566     5798.751    16117.588 
   55500   -254657.48     88.15395   -254569.32    430.82037    5955.3222    16117.588 
   55600   -254656.84    91.739563    -254565.1    448.34374    6074.4646    16117.588 
   55700   -254656.33    92.332661      -254564    451.24229    6077.4538    16117.588 
   55800   -254657.48    93.387388    -254564.1    456.39689    6255.1768    16117.588 
   55900   -254657.86    91.502497   -254566.36    447.18517      6017.98    16117.588 
   56000    -254658.8    90.148944   -254568.66    440.57017    5928.0063    16117.588 
   56100   -254662.43    93.320386   -254569.11    456.06944    6172.4985    16117.588 
   56200   -254657.52    92.303451   -254565.22    451.09954    6073.1783    16117.588 
   56300   -254657.82    94.717117    -254563.1    462.89545    6232.4822    16117.588 
   56400   -254659.29    93.220957   -254566.07    455.58352    6170.7671    16117.588 
   56500   -254656.19    88.239227   -254567.95    431.23712      6119.74    16117.588 
   56600   -254658.65    93.330746   -254565.32    456.12007    6191.7668    16117.588 
   56700   -254656.85    97.279269   -254559.57    475.41704    6402.9803    16117.588 
   56800   -254653.92    93.566624   -254560.36    457.27284    6150.4243    16117.588 
   56900    -254655.4    92.145324   -254563.25    450.32675    6088.2209    16117.588 
   57000   -254657.46    92.075349   -254565.39    449.98477     6059.115    16117.588 
   57100   -254657.22    90.853233   -254566.37    444.01213    5974.9563    16117.588 
   57200   -254657.68    91.277463    -254566.4     446.0854    6032.2264    16117.588 
   57300   -254655.14    90.589163   -254564.55    442.72158    5986.8971    16117.588 
   57400   -254655.77    94.669065    -254561.1    462.66062    6249.7493    16117.588 
   57500   -254654.73    92.190003   -254562.54    450.54511    6064.5867    16117.588 
   57600   -254658.07    91.571212    -254566.5    447.52099    6022.0916    16117.588 
   57700   -254657.31    90.274979   -254567.04    441.18612    5938.2909    16117.588 
   57800   -254654.86    89.597413   -254565.27    437.87477    5893.3283    16117.588 
   57900    -254657.9     93.76979   -254564.13    458.26574     6173.004    16117.588 
   58000   -254655.92    91.130717   -254564.79    445.36823    6025.4426    16117.588 
   58100   -254660.88    94.874666   -254566.01    463.66542    6244.6898    16117.588 
   58200   -254656.88    89.945514   -254566.94    439.57598    5968.6409    16117.588 
   58300   -254656.15    92.244685   -254563.91    450.81234    6096.7925    16117.588 
   58400   -254654.65    95.845004    -254558.8    468.40759    6308.8253    16117.588 
   58500   -254655.31    93.125116   -254562.19    455.11513    6200.0596    16117.588 
   58600   -254656.51    90.448613   -254566.06     442.0347    5978.2216    16117.588 
   58700    -254656.2    89.681802   -254566.52    438.28719    5899.9511    16117.588 
   58800   -254657.58    92.657638   -254564.92     452.8305    6095.2509    16117.588 
   58900   -254657.56    96.935622   -254560.63    473.73759    6382.6562    16117.588 
   59000   -254654.06    94.523702   -254559.54    461.95021    6221.5179    16117.588 
   59100   -254653.02    89.080628   -254563.94    435.34916    5890.9505    16117.588 
   59200   -254655.96    89.632646   -254566.33    438.04695    5898.2716    16117.588 
   59300   -254656.81    92.114816    -254564.7    450.17765    6062.1018    16117.588 
   59400   -254654.32    90.803233   -254563.51    443.76777    6023.7018    16117.588 
   59500   -254656.36    92.029954   -254564.33    449.76293    6087.0651    16117.588 
   59600   -254657.67    89.802007   -254567.87    438.87464    5910.1565    16117.588 
   59700   -254657.95    88.347362    -254569.6     431.7656    5861.5886    16117.588 
   59800    -254660.2    91.863348   -254568.34     448.9487    6046.8662    16117.588 
   59900   -254659.42    92.261485   -254567.16    450.89445    6123.7939    16117.588 
   60000    -254657.3    93.404501   -254563.89    456.48052    6187.6137    16117.588 
   60100   -254654.63    93.185772   -254561.44    455.41156    6134.6396    16117.588 
   60200   -254657.77    93.895015   -254563.88    458.87773    6210.0801    16117.588 
   60300    -254658.1     90.03787   -254568.06    440.02734    5927.6306    16117.588 
   60400   -254659.27      92.6532   -254566.61    452.80881    6100.4631    16117.588 
   60500   -254658.23    92.830611    -254565.4    453.67584    6112.2003    16117.588 
   60600   -254657.18    93.398998   -254563.78    456.45363    6218.3831    16117.588 
   60700   -254654.88    94.597271   -254560.28    462.30975    6260.0943    16117.588 
   60800   -254655.01    96.682684   -254558.33    472.50145    6462.2129    16117.588 
   60900   -254658.02    93.944875   -254564.08     459.1214    6187.4712    16117.588 
   61000   -254658.13    91.788152   -254566.34     448.5812    6143.2824    16117.588 
   61100   -254660.92    92.491747   -254568.43    452.01977    6233.8751    16117.588 
   61200   -254662.85    92.668791   -254570.18    452.88501    6211.7729    16117.588 
   61300   -254662.36    91.759619    -254570.6    448.44176    6092.6141    16117.588 
   61400   -254660.79      90.1875    -254570.6     440.7586    5973.4172    16117.588 
   61500   -254658.89    92.312318   -254566.58    451.14287    6223.2857    16117.588 
   61600   -254657.12    93.206816   -254563.91    455.51441    6135.6584    16117.588 
   61700   -254658.28    94.129362   -254564.15    460.02302    6198.0189    16117.588 
   61800   -254659.59    93.539587   -254566.05    457.14071    6203.0712    16117.588 
   61900   -254661.94    91.209346   -254570.73     445.7525    6006.7457    16117.588 
   62000   -254663.29    92.352405   -254570.94    451.33878    6081.9388    16117.588 
   62100   -254657.25    88.599541   -254568.65    432.99803    5874.3232    16117.588 
   62200   -254656.66    90.693508   -254565.97    443.23153    6038.9253    16117.588 
   62300   -254657.82    91.968399   -254565.85     449.4621    6055.4277    16117.588 
   62400    -254658.6    93.033209   -254565.57    454.66597    6227.6845    16117.588 
   62500   -254658.24    91.261808   -254566.98    446.00889    6010.1368    16117.588 
   62600   -254658.71    89.309027    -254569.4    436.46538    6027.4818    16117.588 
   62700    -254659.1    91.639796   -254567.46    447.85617     6033.257    16117.588 
   62800    -254658.9    95.890986   -254563.01    468.63231    6314.1525    16117.588 
   62900   -254657.63    93.900145   -254563.73     458.9028    6269.6483    16117.588 
   63000   -254657.23    90.891941   -254566.34     444.2013    6032.5588    16117.588 
   63100   -254659.39    91.439536   -254567.95    446.87747    6022.0586    16117.588 
   63200   -254658.91    92.987903   -254565.92    454.44455    6200.6852    16117.588 
   63300   -254652.66    92.174324   -254560.49    450.46848    6122.0301    16117.588 
   63400   -254654.87    93.518338   -254561.35    457.03686    6158.5227    16117.588 
   63500   -254658.38    92.893674   -254565.48    453.98404     6147.434    16117.588 
   63600   -254659.15    91.473857   -254567.68     447.0452    6024.5295    16117.588 
   63700   -254660.32    92.803803   -254567.52    453.54483    6112.5326    16117.588 
   63800   -254657.05    92.801149   -254564.25    453.53186    6111.5304    16117.588 
   63900   -254653.73    93.307281   -254560.42     456.0054    6145.2669    16117.588 
   64000   -254655.07    93.461264    -254561.6    456.75793    6144.1885    16117.588 
   64100   -254654.37    91.006334   -254563.36    444.76035    6014.0798    16117.588 
   64200   -254654.66    90.507474   -254564.15    442.32236    5959.7029    16117.588 
   64300   -254654.65     89.87176   -254564.78    439.21554    5919.1871    16117.588 
   64400   -254659.39    95.141637   -254564.25    464.97014    6302.6259    16117.588 
   64500   -254655.94    89.838459    -254566.1    439.05279    5916.8487    16117.588 
   64600    -254658.2    92.347837   -254565.85    451.31646    6081.9924    16117.588 
   64700   -254654.98    91.881325    -254563.1    449.03655    6111.5055    16117.588 
   64800   -254653.84    93.951315   -254559.89    459.15288    6188.1171    16117.588 
   64900   -254653.83    92.873228   -254560.96    453.88412    6097.7404    16117.588 
   65000   -254656.72    91.130084   -254565.59    445.36514    6057.1839    16117.588 
   65100   -254659.21     91.92414   -254567.29     449.2458    6051.8981    16117.588 
   65200   -254660.32    92.120944    -254568.2     450.2076    6066.0432    16117.588 
   65300   -254657.42    90.886734   -254566.54    444.17585    5984.4471    16117.588 
   65400   -254658.28    95.679785    -254562.6    467.60015    6303.4756    16117.588 
   65500   -254656.89    93.271838   -254563.61    455.83218    6145.3459    16117.588 
   65600    -254656.4    90.503232    -254565.9    442.30162     5961.407    16117.588 
   65700   -254657.63    90.995925   -254566.63    444.70948    6098.3515    16117.588 
   65800   -254656.75    91.520016   -254565.23    447.27079     6029.244    16117.588 
   65900    -254657.9    93.590234   -254564.31    457.38823    6165.4592    16117.588 
   66000   -254657.87    93.325534   -254564.54     456.0946    6233.5702    16117.588 
   66100   -254658.93     92.27797   -254566.65    450.97501    6078.6121    16117.588 
   66200   -254659.95    92.482014   -254567.47     451.9722    6129.8496    16117.588 
   66300    -254656.9    91.347858   -254565.56    446.42943    6058.0328    16117.588 
   66400   -254653.81     92.31328    -254561.5    451.14758    6078.9426    16117.588 
   66500   -254655.01    94.726668   -254560.29    462.94213    6238.3963    16117.588 
   66600   -254654.42    92.948699   -254561.48    454.25295    6148.6755    16117.588 
   66700   -254654.62    90.871354   -254563.75    444.10069    5982.6492    16117.588 
   66800    -254655.4    91.976143   -254563.42    449.49994    6056.2804    16117.588 
   66900   -254656.35    91.796439   -254564.55     448.6217    6159.0622    16117.588 
   67000   -254657.88    91.086765   -254566.79    445.15343    6022.6879    16117.588 
   67100   -254660.22    90.485488   -254569.74    442.21491    5990.9043    16117.588 
   67200   -254661.15     89.20143   -254571.95    435.93954    5874.4994    16117.588 
   67300   -254659.56    91.502173   -254568.06    447.18359    6125.8699    16117.588 
   67400   -254659.17    93.983178   -254565.19     459.3086    6188.5172    16117.588 
   67500   -254659.59    92.469549   -254567.12    451.91129    6090.3242    16117.588 
   67600   -254659.54    90.409169   -254569.13    441.84192    5954.2799    16117.588 
   67700   -254659.82    93.353906   -254566.46    456.23326    6148.4304    16117.588 
   67800   -254655.48    91.270418   -254564.21    446.05097    6012.1165    16117.588 
   67900   -254658.84    94.715371   -254564.12    462.88692    6240.1323    16117.588 
   68000   -254657.35    91.785379   -254565.56    448.56765    6047.0852    16117.588 
   68100   -254658.37    91.991656   -254566.38    449.57575    6060.3722    16117.588 
   68200   -254656.42    92.789531   -254563.63    453.47508    6193.7946    16117.588 
   68300   -254653.32    93.640899   -254559.68    457.63583    6170.2622    16117.588 
   68400   -254653.69    92.003202   -254561.69    449.63218    6218.0295    16117.588 
   68500   -254656.33    91.815367   -254564.52    448.71421    6098.6219    16117.588 
   68600   -254657.04    91.973824   -254565.07    449.48861     6059.425    16117.588 
   68700   -254654.27    89.294381   -254564.97    436.39381    6057.4033    16117.588 
   68800    -254655.5      93.8578   -254561.64    458.69586    6182.7713    16117.588 
   68900   -254655.55    98.962852   -254556.58    483.64494    6559.4603    16117.588 
   69000   -254653.06    93.011559   -254560.05    454.56016    6165.4226    16117.588 
   69100   -254655.42    93.194535   -254562.22    455.45439    6187.2609    16117.588 
   69200   -254656.67    91.477825   -254565.19    447.06459    6024.4392    16117.588 
   69300   -254656.37    89.024906   -254567.35    435.07685    5862.3109    16117.588 
   69400   -254659.39    93.099056   -254566.29    454.98777    6131.6368    16117.588 
   69500   -254659.31    95.634036   -254563.67    467.37656    6298.8737    16117.588 
   69600   -254660.49    90.980565   -254569.51    444.63442    5990.3082    16117.588 
   69700    -254661.2    90.245978   -254570.96    441.04439    5964.7369    16117.588 
   69800    -254659.7     91.60748   -254568.09    447.69824    6087.7922    16117.588 
   69900   -254656.77    92.120914   -254564.65    450.20746    6099.8965    16117.588 
   70000   -254654.88    92.090806   -254562.79    450.06031    6100.2496    16117.588 
   70100   -254653.75    90.226478   -254563.53    440.94909    6007.6319    16117.588 
   70200   -254657.81    90.294592   -254567.51    441.28197    5998.3153    16117.588 
   70300    -254660.6    89.722725   -254570.87    438.48718    5969.4648    16117.588 
   70400   -254660.31    89.454091   -254570.86    437.17433    6032.0615    16117.588 
   70500   -254662.83    92.934383    -254569.9    454.18299    6191.8048    16117.588 
   70600   -254658.59    90.045388   -254568.55    440.06408    5926.7514    16117.588 
   70700   -254656.96    93.751984   -254563.21    458.17872    6166.8635    16117.588 
   70800   -254657.42    94.365537   -254563.05    461.17724    6184.7354    16117.588 
   70900    -254658.3    91.845873   -254566.45    448.86329    6043.0944    16117.588 
   71000   -254660.57    92.532234   -254568.04    452.21763    6120.6876    16117.588 
   71100   -254659.34    91.886855   -254567.45    449.06358    6047.1275    16117.588 
   71200   -254659.12    92.004885   -254567.12    449.64041     6049.254    16117.588 
   71300   -254660.77    92.463174   -254568.31    451.88013     6183.949    16117.588 
   71400   -254658.17    89.360569   -254568.81    436.71727    5978.4514    16117.588 
   71500   -254661.44    93.409249   -254568.03    456.50373    6189.6991    16117.588 
   71600   -254660.68    92.500062   -254568.18    452.06041    6089.2053    16117.588 
   71700   -254661.69    91.336319   -254570.35    446.37304     6086.044    16117.588 
   71800    -254662.4    88.354291   -254574.04    431.79946    5843.7419    16117.588 
   71900   -254663.79    90.770287   -254573.02    443.60676    5975.1107    16117.588 
   72000   -254660.29    90.959197   -254569.33    444.52999    5987.1364    16117.588 
   72100   -254659.87    91.737084   -254568.13    448.33163    6036.1733    16117.588 
   72200   -254660.95    95.200861   -254565.75    465.25958    6269.3777    16117.588 
   72300   -254655.14     91.03419    -254564.1    444.89649    6021.6271    16117.588 
   72400   -254656.65    95.715853   -254560.94    467.77641    6388.2535    16117.588 
   72500    -254655.5    96.050252   -254559.45    469.41067    6324.5533    16117.588 
   72600   -254656.98    92.502737   -254564.48    452.07348    6123.8035    16117.588 
   72700   -254658.52     90.46679   -254568.05    442.12353    5950.4137    16117.588 
   72800   -254658.93     89.36694   -254569.56    436.74841    5968.0132    16117.588 
   72900   -254658.43    90.451531   -254567.98    442.04895    5974.4478    16117.588 
   73000   -254658.22    93.279709   -254564.94    455.87064    6167.3119    16117.588 
   73100   -254660.04    93.197774   -254566.84    455.47022    6130.7188    16117.588 
   73200   -254661.66     92.09844   -254569.56    450.09762    6061.8492    16117.588 
   73300   -254660.14    90.697292   -254569.44    443.25002    5967.2809    16117.588 
   73400   -254657.44     89.71568   -254567.73    438.45275    5902.2167    16117.588 
   73500   -254658.72    94.203259   -254564.51    460.38416    6198.7883    16117.588 
   73600   -254655.66    92.383623   -254563.27    451.49135    6109.5991    16117.588 
   73700   -254658.29    93.309962   -254564.98     456.0185    6141.5151    16117.588 
   73800   -254660.64    91.922801   -254568.71    449.23925    6092.3244    16117.588 
   73900   -254658.64    90.267362   -254568.37     441.1489    5939.3423    16117.588 
   74000   -254658.73    91.215549   -254567.52    445.78281    6003.1877    16117.588 
   74100   -254658.59    93.461622   -254565.13    456.75968    6187.2259    16117.588 
   74200   -254658.09    93.458498   -254564.63    456.74441    6183.9762    16117.588 
   74300    -254658.1    89.187175   -254568.91    435.86988    5869.2004    16117.588 
   74400      -254662     92.15855   -254569.85    450.39139    6067.6758    16117.588 
   74500   -254658.46    90.589149   -254567.88    442.72151    5992.2103    16117.588 
   74600   -254656.21    90.699994   -254565.51    443.26323    5970.7159    16117.588 
   74700   -254656.05    93.007288   -254563.04    454.53929    6175.1974    16117.588 
   74800   -254656.18    93.293632   -254562.89    455.93869    6192.9808    16117.588 
   74900   -254657.47    90.984832   -254566.48    444.65527    5988.2903    16117.588 
   75000   -254660.89    90.922549   -254569.97    444.35089    6014.9913    16117.588 
   75100   -254656.41    86.483744   -254569.93    422.65784     5689.543    16117.588 
   75200   -254660.02    92.444356   -254567.57    451.78816    6116.7032    16117.588 
   75300      -254660    94.493501   -254565.51    461.80261    6220.0257    16117.588 
   75400   -254657.68    92.371866    -254565.3     451.4339    6081.4126    16117.588 
   75500   -254656.35    89.616972   -254566.74    437.97035    5898.2176    16117.588 
   75600   -254661.32    90.883417   -254570.44    444.15964    5982.8334    16117.588 
   75700   -254662.03    90.425722    -254571.6    441.92282    6034.3154    16117.588 
   75800   -254658.02    90.397914   -254567.62    441.78692    5990.7014    16117.588 
   75900   -254657.51    92.624614   -254564.89    452.66911    6098.1645    16117.588 
   76000   -254655.52    90.610637   -254564.91    442.82653    5964.5182    16117.588 
   76100   -254659.28    93.796448   -254565.48    458.39602    6206.8342    16117.588 
   76200   -254659.37    95.188149   -254564.18    465.19745    6298.2702    16117.588 
   76300   -254656.87    94.742993   -254562.13    463.02191    6276.1276    16117.588 
   76400   -254657.62    94.674252   -254562.94    462.68597     6281.288    16117.588 
   76500   -254656.74    89.825509   -254566.92     438.9895    5936.8916    16117.588 
   76600   -254656.62    88.835883   -254567.79    434.15307    5846.9594    16117.588 
   76700   -254661.02    94.916714   -254566.11    463.87091    6251.0907    16117.588 
   76800   -254657.12    91.060288   -254566.06    445.02403    5997.3169    16117.588 
   76900   -254659.66    91.860414    -254567.8    448.93436    6050.7843    16117.588 
   77000   -254659.11    90.086858   -254569.02    440.26675      5930.86    16117.588 
   77100   -254658.77    92.500553   -254566.27     452.0628    6091.9199    16117.588 
   77200   -254656.17    92.984682   -254563.19    454.42881    6150.7595    16117.588 
   77300   -254653.96    91.545723   -254562.41    447.39642    6027.4321    16117.588 
   77400   -254655.87    92.097439   -254563.77    450.09273    6063.9553    16117.588 
   77500   -254657.92    90.440268   -254567.48    441.99391    5956.0933    16117.588 
   77600   -254659.94    88.016201   -254571.92    430.14717    5793.6184    16117.588 
   77700   -254658.63    89.209169   -254569.43    435.97736    5912.9979    16117.588 
   77800   -254657.83    91.322594   -254566.51    446.30596    6061.5381    16117.588 
   77900   -254658.29    92.181257   -254566.11    450.50236    6189.8866    16117.588 
   78000    -254657.9    91.601132    -254566.3    447.66721     6031.723    16117.588 
   78100   -254657.22     94.58941   -254562.63    462.27134     6314.277    16117.588 
   78200    -254656.4     96.24766   -254560.16    470.37543     6387.469    16117.588 
   78300   -254658.81    95.027625   -254563.78    464.41295    6257.9346    16117.588 
   78400   -254657.71    90.369346   -254567.34    441.64731    5950.3747    16117.588 
   78500   -254657.19    89.992447    -254567.2    439.80535    5923.7607    16117.588 
   78600    -254659.7    93.595929    -254566.1    457.41606    6163.5952    16117.588 
   78700   -254656.01    91.089302   -254564.92    445.16583    6128.5808    16117.588 
   78800   -254657.74    93.951371   -254563.79    459.15315     6304.453    16117.588 
   78900   -254658.25    94.129812   -254564.12    460.02522    6224.5921    16117.588 
   79000   -254658.57    89.700992   -254568.87    438.38097    5904.0986    16117.588 
   79100   -254657.67    88.230754   -254569.44    431.19571    5806.3553    16117.588 
   79200    -254659.1    92.955625   -254566.15     454.2868    6119.4428    16117.588 
   79300    -254656.3    91.731465   -254564.57    448.30417    6135.8749    16117.588 
   79400   -254655.18      90.8765    -254564.3    444.12584    5978.0538    16117.588 
   79500   -254656.99    92.387579    -254564.6    451.51068    6079.0362    16117.588 
   79600   -254657.77     91.58029   -254566.19    447.56535    6027.8875    16117.588 
   79700   -254659.69       87.505   -254572.18    427.64886    5813.9917    16117.588 
   79800   -254660.88    89.790001   -254571.09    438.81597    5909.4848    16117.588 
   79900   -254660.28    92.507293   -254567.77    452.09575    6154.0335    16117.588 
   80000      -254657    90.730371   -254566.27    443.41168    6137.9424    16117.588 
   80100   -254657.25    92.632713   -254564.61    452.70869    6204.3254    16117.588 
   80200   -254656.67    94.602654   -254562.06    462.33606    6227.5015    16117.588 
   80300   -254654.55    93.715318   -254560.83    457.99953    6167.3752    16117.588 
   80400   -254657.36    92.798577   -254564.56    453.51929    6109.0826    16117.588 
   80500   -254658.39    90.902431   -254567.49    444.25256    5984.1182    16117.588 
   80600   -254658.04    90.588721   -254567.46    442.71942    6066.8842    16117.588 
   80700   -254658.12    93.022657    -254565.1     454.6144    6307.4761    16117.588 
   80800   -254652.26    91.826246   -254560.43    448.76738    6076.5343    16117.588 
   80900   -254651.02    91.898475   -254559.12    449.12037    6052.4272    16117.588 
   81000   -254656.13    95.321501   -254560.81    465.84916    6305.6944    16117.588 
   81100   -254657.45    93.306542   -254564.15    456.00178     6205.687    16117.588 
   81200   -254658.12    92.590466   -254565.53    452.50222    6096.0669    16117.588 
   81300   -254658.67    91.992532   -254566.68    449.58004    6088.7172    16117.588 
   81400   -254661.48    92.015683   -254569.46    449.69318    6059.6005    16117.588 
   81500   -254661.42    89.626274    -254571.8    438.01581    5901.6573    16117.588 
   81600   -254661.85    92.477666   -254569.37    451.95095    6090.5828    16117.588 
   81700   -254657.34    92.585398   -254564.75    452.47745    6198.4261    16117.588 
   81800   -254655.46    92.646649   -254562.81    452.77679    6101.1906    16117.588 
   81900   -254656.58     93.76868   -254562.81    458.26031    6214.7255    16117.588 
   82000    -254659.2    93.747174   -254565.45    458.15521    6173.2178    16117.588 
   82100   -254659.71    90.145681   -254569.57    440.55422     6040.599    16117.588 
   82200   -254657.81    89.625861   -254568.19    438.01379    5900.6727    16117.588 
   82300   -254656.54    90.450816   -254566.09    442.04546    5955.3535    16117.588 
   82400   -254658.73    93.920688   -254564.81     459.0032    6186.7908    16117.588 
   82500   -254655.23    91.169162   -254564.06    445.55611    6002.7566    16117.588 
   82600   -254656.98    94.954948   -254562.02    464.05777     6352.759    16117.588 
   82700   -254658.23    95.769768   -254562.46     468.0399    6309.8543    16117.588 
   82800   -254657.45    90.710854   -254566.74     443.3163    5973.8929    16117.588 
   82900   -254659.39     91.61284   -254567.77    447.72443    6138.5903    16117.588 
   83000   -254658.64    91.987575   -254566.66    449.55581    6081.1873    16117.588 
   83100   -254659.31    95.250715   -254564.06    465.50322    6275.6403    16117.588 
   83200   -254658.18    94.950457   -254563.23    464.03582    6334.2874    16117.588 
   83300   -254659.51    91.931414   -254567.57    449.28135    6053.8381    16117.588 
   83400   -254659.04     89.92594   -254569.11    439.48032    6000.2102    16117.588 
   83500    -254659.2    90.677995   -254568.52    443.15572    5972.5978    16117.588 
   83600   -254654.57    90.303587   -254564.27    441.32593     5988.086    16117.588 
   83700   -254656.05    94.361508   -254561.69    461.15754    6238.3014    16117.588 
   83800   -254655.91    91.771054   -254564.14    448.49764    6044.8217    16117.588 
   83900   -254658.04    91.811881   -254566.22    448.69717    6048.9689    16117.588 
   84000   -254660.64     91.75476   -254568.89    448.41801    6098.3762    16117.588 
   84100   -254662.81    90.058146   -254572.75    440.12643    5980.3704    16117.588 
   84200   -254661.44    87.921529   -254573.52    429.68449    5826.5968    16117.588 
   84300   -254659.07    90.847676   -254568.22    443.98497    6006.6816    16117.588 
   84400   -254662.39    94.711412   -254567.67    462.86757    6264.8073    16117.588 
   84500   -254660.09    90.681348   -254569.41     443.1721    6010.0168    16117.588 
   84600   -254660.59    89.141538   -254571.45    435.64684    5946.3423    16117.588 
   84700   -254662.67    90.254088   -254572.42    441.08402    5944.6936    16117.588 
   84800   -254659.23    91.948118   -254567.29    449.36298    6058.1229    16117.588 
   84900   -254658.85    93.609227   -254565.25    457.48105    6164.4596    16117.588 
   85000   -254656.06    89.779745   -254566.28    438.76585    5970.6175    16117.588 
   85100   -254657.17    90.024407   -254567.15    439.96154    5966.7782    16117.588 
   85200   -254658.35     90.00585   -254568.34    439.87085    5927.5418    16117.588 
   85300   -254660.09    92.816179   -254567.28    453.60531    6279.1473    16117.588 
   85400   -254661.08    93.593378   -254567.49    457.40359    6243.5356    16117.588 
   85500   -254660.01    91.947426   -254568.07     449.3596    6197.4342    16117.588 
   85600    -254659.5     90.19961    -254569.3    440.81778     5940.873    16117.588 
   85700   -254661.12    94.482042   -254566.64    461.74661    6224.1441    16117.588 
   85800   -254658.24    92.896639   -254565.34    453.99853    6119.1734    16117.588 
   85900   -254661.51    93.794459   -254567.72     458.3863    6251.6262    16117.588 
   86000   -254659.49    87.884792   -254571.61    429.50495    5786.9426    16117.588 
   86100   -254658.68     89.25658   -254569.42    436.20907    5941.8273    16117.588 
   86200   -254657.78    91.931281   -254565.85     449.2807    6054.8696    16117.588 
   86300    -254659.8    94.920685   -254564.87    463.89032    6291.8753    16117.588 
   86400   -254658.26    91.808902   -254566.45    448.68261    6199.5689    16117.588 
   86500   -254658.37    90.560172   -254567.81     442.5799    6028.5826    16117.588 
   86600   -254660.28    88.440051   -254571.84    432.21858    5822.1443    16117.588 
   86700   -254661.09    89.615788   -254571.47    437.96456    5986.9511    16117.588 
   86800   -254661.46    93.836555   -254567.62    458.59203    6232.8367    16117.588 
   86900   -254658.41    92.102837   -254566.31    450.11911    6118.7621    16117.588 
   87000   -254660.08      93.8599   -254566.22    458.70612    6175.3089    16117.588 
   87100   -254659.73    93.920252   -254565.81    459.00107    6184.0954    16117.588 
   87200   -254657.87    92.464836   -254565.41    451.88825    6124.6312    16117.588 
   87300   -254657.89    91.662456   -254566.22    447.96691    6035.1849    16117.588 
   87400   -254656.84    88.937623    -254567.9    434.65028    5853.8643    16117.588 
   87500   -254658.45    92.267698   -254566.18    450.92481    6118.0527    16117.588 
   87600   -254658.31    93.841561   -254564.47     458.6165    6180.5952    16117.588 
   87700   -254659.19    94.493505    -254564.7    461.80263    6220.7048    16117.588 
   87800   -254662.68    92.872119   -254569.81     453.8787    6115.0829    16117.588 
   87900   -254661.54    90.408793   -254571.14    441.84009    5952.8476    16117.588 
   88000    -254657.6    88.609214   -254568.99     433.0453    5946.9919    16117.588 
   88100   -254660.43    94.315231   -254566.12    460.93138    6209.5513    16117.588 
   88200   -254661.48    93.724083   -254567.75    458.04236    6255.0545    16117.588 
   88300   -254661.56    92.803769   -254568.75    453.54466    6110.2643    16117.588 
   88400   -254660.21    92.317996   -254567.89    451.17063    6078.4351    16117.588 
   88500   -254659.02    92.850228   -254566.17    453.77171    6113.1431    16117.588 
   88600    -254657.8    96.154964   -254561.64    469.92241    6330.4253    16117.588 
   88700   -254654.63    93.672356   -254560.96    457.78957    6166.1486    16117.588 
   88800   -254657.67    92.360076   -254565.31    451.37627    6116.3601    16117.588 
   88900    -254659.2    91.669684   -254567.53    448.00223    6060.4965    16117.588 
   89000   -254660.32    90.744341   -254569.58    443.47996    5973.4226    16117.588 
   89100   -254660.82    89.404928   -254571.41    436.93407    5885.5821    16117.588 
   89200   -254661.92    91.774594   -254570.15    448.51495     6073.502    16117.588 
   89300   -254657.95     92.87049   -254565.08    453.87074    6142.3812    16117.588 
   89400   -254658.86    94.518187   -254564.34    461.92326    6223.9896    16117.588 
   89500    -254658.1    91.987377   -254566.11    449.55485    6084.9676    16117.588 
   89600   -254660.21    90.274483   -254569.94     441.1837    5943.9393    16117.588 
   89700   -254663.18     90.45231   -254572.73    442.05276    6009.9905    16117.588 
   89800   -254659.33    90.585087   -254568.74    442.70166    6031.2155    16117.588 
   89900   -254660.97    93.715975   -254567.25    458.00274    6233.2785    16117.588 
   90000   -254659.79    92.600002   -254567.19    452.54882    6096.1827    16117.588 
   90100   -254657.91    90.645044   -254567.27    442.99468    5968.3894    16117.588 
   90200   -254658.22    92.921004    -254565.3    454.11761    6226.2678    16117.588 
   90300   -254657.91    95.025784   -254562.88    464.40395    6312.8324    16117.588 
   90400   -254655.28    94.006015   -254561.27     459.4202    6188.6697    16117.588 
   90500   -254657.18    95.018802   -254562.16    464.36983    6257.2257    16117.588 
   90600   -254659.01    92.806277   -254566.21    453.55692    6110.7233    16117.588 
   90700   -254658.07    89.922516   -254568.15    439.46359    5920.6938    16117.588 
   90800   -254656.85    88.653167    -254568.2    433.26011      5872.23    16117.588 
   90900   -254658.84    94.683046   -254564.15    462.72894    6237.5273    16117.588 
   91000   -254657.33    95.030635    -254562.3    464.42766    6259.8924    16117.588 
   91100   -254657.21    92.193938   -254565.01    450.56434    6145.8733    16117.588 
   91200   -254657.98    92.206361   -254565.77    450.62505    6073.4482    16117.588 
   91300    -254658.3    91.397799    -254566.9     446.6735    6019.9153    16117.588 
   91400   -254659.64    91.385977   -254568.26    446.61572    6150.6816    16117.588 
   91500   -254662.25    90.393466   -254571.86    441.76518    6015.8836    16117.588 
   91600    -254663.6    87.566543   -254576.04    427.94962    5765.6042    16117.588 
   91700   -254663.52    87.326233    -254576.2     426.7752     5824.251    16117.588 
   91800   -254662.05    91.893044   -254570.16    449.09383    6150.5562    16117.588 
   91900   -254661.11    93.854195   -254567.26    458.67824    6181.0714    16117.588 
   92000   -254659.64    93.354234   -254566.29    456.23486     6148.156    16117.588 
   92100   -254660.23    92.048804   -254568.18    449.85504    6063.5448    16117.588 
   92200   -254662.62    91.840857   -254570.78    448.83878    6108.7137    16117.588 
   92300   -254661.23    89.611116   -254571.62    437.94173    5986.1434    16117.588 
   92400   -254658.91     93.04438   -254565.86    454.72056    6128.8947    16117.588 
   92500   -254658.96    94.605834   -254564.35     462.3516    6231.3508    16117.588 
   92600   -254656.43    90.033968   -254566.39    440.00827    5931.5323    16117.588 
   92700   -254659.82    90.140972   -254569.68    440.53121     5971.443    16117.588 
   92800    -254660.9    90.430543   -254570.47    441.94639    5957.2045    16117.588 
   92900   -254661.47    92.576364    -254568.9     452.4333     6097.851    16117.588 
   93000   -254655.57    91.212181   -254564.36    445.76636    6211.2041    16117.588 
   93100   -254656.34    93.707692   -254562.63    457.96226    6173.1491    16117.588 
   93200   -254657.55    93.589756   -254563.96    457.38589    6220.5185    16117.588 
   93300   -254658.98    90.727308   -254568.25    443.39671    5974.1126    16117.588 
   93400   -254659.91    90.896874   -254569.01    444.22541    6009.3174    16117.588 
   93500   -254657.63    91.000013   -254566.63    444.72946    6016.3886    16117.588 
   93600    -254656.8    92.656558   -254564.15    452.82522    6146.0892    16117.588 
   93700   -254660.31    96.439828   -254563.87    471.31458    6354.8871    16117.588 
   93800   -254657.75    92.497102   -254565.25    452.04594    6114.7365    16117.588 
   93900   -254661.47    94.653103   -254566.81    462.58261    6232.4033    16117.588 
   94000    -254659.6    91.585733   -254568.01    447.59196    6076.5276    16117.588 
   94100   -254662.28    93.282308      -254569    455.88335    6142.2918    16117.588 
   94200   -254662.41    93.388714   -254569.02    456.40337    6152.5118    16117.588 
   94300   -254658.23    94.205189   -254564.02    460.39359    6204.5189    16117.588 
   94400   -254653.95    92.941949   -254561.01    454.21997    6121.8931    16117.588 
   94500   -254654.65    92.152952    -254562.5    450.36403    6124.1534    16117.588 
   94600   -254656.31    91.889034   -254564.42    449.07423    6098.7172    16117.588 
   94700   -254660.08    92.633701   -254567.45    452.71352     6101.771    16117.588 
   94800   -254659.56    88.373531   -254571.19    431.89349    5815.5219    16117.588 
   94900   -254660.29    90.972582   -254569.32     444.5954    5989.0418    16117.588 
   95000   -254655.86    91.553472   -254564.31    447.43429    6030.2177    16117.588 
   95100   -254654.85     91.24353   -254563.61    445.91956    6008.4094    16117.588 
   95200   -254657.83    93.039075   -254564.79    454.69464    6127.7005    16117.588 
   95300    -254661.1    92.491245   -254568.61    452.01731    6090.8565    16117.588 
   95400    -254661.9    90.805502   -254571.09    443.77886    5979.3628    16117.588 
   95500   -254663.13    92.679549   -254570.45    452.93758    6154.0428    16117.588 
   95600   -254660.61    90.789813   -254569.82    443.70218    5979.5277    16117.588 
   95700   -254660.05    91.173679   -254568.87    445.57819    6004.9159    16117.588 
   95800   -254658.32    93.729868   -254564.59    458.07064    6171.1604    16117.588 
   95900   -254657.69    94.865421   -254562.83    463.62024    6330.4735    16117.588 
   96000   -254660.09    93.251666   -254566.84    455.73359    6141.5915    16117.588 
   96100    -254660.1    90.680606   -254569.42    443.16848    5971.1594    16117.588 
   96200   -254659.67     90.07672    -254569.6     440.2172    5932.4242    16117.588 
   96300   -254658.37    92.053017   -254566.31    449.87564    6062.3125    16117.588 
   96400   -254659.08    94.982562    -254564.1    464.19272      6258.28    16117.588 
   96500   -254657.12     90.86577   -254566.26     444.0734    5984.2312    16117.588 
   96600   -254660.24    92.950325   -254567.29     454.2609    6122.4229    16117.588 
   96700    -254659.5    92.043564   -254567.45    449.82944    6060.7376    16117.588 
   96800   -254659.41    90.654582   -254568.75    443.04129    5970.4273    16117.588 
   96900   -254657.29    89.034514   -254568.26     435.1238    5950.9387    16117.588 
   97000      -254655    91.078145   -254563.93     445.1113    5997.2134    16117.588 
   97100   -254659.32    96.928223   -254562.39    473.70143    6417.5303    16117.588 
   97200   -254662.39    96.151007   -254566.24    469.90307    6543.8141    16117.588 
   97300   -254662.17     92.69344   -254569.48    453.00547    6105.6856    16117.588 
   97400   -254660.95    92.415163   -254568.54    451.64549    6114.8485    16117.588 
   97500   -254659.88    93.612592   -254566.27    457.49749    6166.2725    16117.588 
   97600   -254658.22    94.709936   -254563.51    462.86036    6262.7541    16117.588 
   97700   -254657.99    92.927077   -254565.07    454.14729    6120.1391    16117.588 
   97800   -254658.08    88.317275   -254569.77    431.61856    5816.1917    16117.588 
   97900   -254658.64    89.550175   -254569.09    437.64391    5920.9525    16117.588 
   98000   -254657.38    90.945053   -254566.44    444.46087    5988.2241    16117.588 
   98100    -254658.4    93.173621   -254565.23    455.35218    6134.2626    16117.588 
   98200   -254657.83    91.875308   -254565.96    449.00715    6049.2713    16117.588 
   98300   -254658.16    91.325548   -254566.83     446.3204    6061.9376    16117.588 
   98400   -254657.52    91.826804   -254565.69     448.7701     6047.271    16117.588 
   98500   -254657.02    93.623099    -254563.4    457.54884    6198.2654    16117.588 
   98600    -254655.2    92.649321   -254562.55    452.78985    6197.3376    16117.588 
   98700   -254657.94    93.344164    -254564.6    456.18565    6214.7044    16117.588 
   98800   -254659.53    90.845928   -254568.69    443.97643    6106.4953    16117.588 
   98900   -254660.17    91.699716   -254568.47      448.149    6038.8924    16117.588 
   99000   -254659.73    94.331441    -254565.4     461.0106     6237.601    16117.588 
   99100   -254655.77    91.701303   -254564.07    448.15676    6091.1304    16117.588 
   99200   -254658.11    92.911811    -254565.2    454.07268    6121.5003    16117.588 
   99300   -254658.65    87.434036   -254571.21    427.30205    5758.6153    16117.588 
   99400   -254659.94    90.178468   -254569.76    440.71446    5939.8714    16117.588 
   99500   -254656.86    90.706583   -254566.15    443.29543    6049.6564    16117.588 
   99600   -254654.39    89.704522   -254564.69    438.39822    5903.9124    16117.588 
   99700   -254656.74    92.350908   -254564.39    451.33147    6106.8886    16117.588 
   99800   -254660.15    91.181063   -254568.97    445.61428    6005.6528    16117.588 
   99900   -254661.61    90.927003   -254570.68    444.37265     5987.746    16117.588 
  100000   -254659.36    90.014878   -254569.35    439.91497    6007.8567    16117.588 
  100100   -254659.14    93.471979   -254565.66     456.8103    6156.9459    16117.588 
  100200   -254657.56    91.669016   -254565.89    447.99897    6037.4723    16117.588 
  100300   -254658.01    91.742569   -254566.26    448.35844    6041.9288    16117.588 
  100400   -254657.01    90.977505   -254566.04    444.61946    6046.5302    16117.588 
  100500    -254656.4    91.396112   -254565.01    446.66525    6019.4753    16117.588 
  100600   -254658.48    95.485803   -254562.99    466.65213    6292.3414    16117.588 
  100700   -254655.66    91.184376   -254564.47    445.63047    6041.3558    16117.588 
  100800   -254659.16    92.238572   -254566.92    450.78247    6074.2451    16117.588 
  100900    -254661.5    92.332535   -254569.17    451.24168    6080.8123    16117.588 
  101000   -254660.09    90.384241    -254569.7     441.7201    6079.5485    16117.588 
  101100   -254661.79    91.499761   -254570.29     447.1718    6026.3174    16117.588 
  101200   -254659.76     91.72929   -254568.03    448.29354     6040.104    16117.588 
  101300   -254659.23    94.514718   -254564.71     461.9063    6305.6047    16117.588 
  101400   -254659.74    94.819088   -254564.92     463.3938    6272.0469    16117.588 
  101500   -254661.26    91.915024   -254569.35    449.20125    6053.0281    16117.588 
  101600   -254663.49    92.632318   -254570.86    452.70676    6098.9013    16117.588 
  101700   -254660.78    91.027249   -254569.76    444.86257     6019.035    16117.588 
  101800   -254664.41    96.566526   -254567.84    471.93377    6360.1859    16117.588 
  101900   -254658.67    90.842078   -254567.83    443.95761    5980.6476    16117.588 
  102000   -254659.08    88.796771   -254570.28    433.96192    5868.8606    16117.588 
  102100   -254662.63    89.735125    -254572.9    438.54778    5906.5852    16117.588 
  102200   -254664.26    92.002568   -254572.26    449.62909    6056.5913    16117.588 
  102300   -254661.15    92.749066    -254568.4    453.27732    6219.8502    16117.588 
  102400   -254662.14    95.750381   -254566.39    467.94516    6355.2199    16117.588 
  102500   -254660.29    92.224544   -254568.06    450.71391    6097.4545    16117.588 
  102600   -254660.53    90.775684   -254569.75    443.63313    5977.0333    16117.588 
  102700   -254659.92    91.528227   -254568.39    447.31092    6087.9321    16117.588 
  102800   -254658.35    92.773103   -254565.58     453.3948    6108.7109    16117.588 
  102900   -254658.41    94.083985   -254564.32    459.80125     6219.818    16117.588 
  103000   -254656.33    90.620672   -254565.71    442.87557    6017.6353    16117.588 
  103100   -254659.31    92.152804   -254567.15    450.36331    6067.6856    16117.588 
  103200   -254659.63    91.094803   -254568.54    445.19272    5998.8548    16117.588 
  103300   -254660.53    90.078916   -254570.45    440.22794    5929.2305    16117.588 
  103400    -254660.4    91.979307   -254568.42    449.51541    6081.0392    16117.588 
  103500   -254657.71    93.109656    -254564.6    455.03957    6207.6811    16117.588 
  103600   -254656.97    94.034533   -254562.94    459.55957    6243.0299    16117.588 
  103700   -254657.37    91.501233   -254565.87    447.17899    6024.5142    16117.588 
  103800   -254659.82    91.076709   -254568.74    445.10429     6078.052    16117.588 
  103900   -254659.26    90.332566   -254568.93    441.46756    5980.3445    16117.588 
  104000   -254659.98    91.904909   -254568.08    449.15181    6035.2388    16117.588 
  104100   -254655.65     88.68189   -254566.96    433.40048    5861.3093    16117.588 
  104200    -254660.3    94.185408   -254566.12    460.29692    6202.5658    16117.588 
  104300   -254657.05    88.871593   -254568.18    434.32758      5850.13    16117.588 
  104400   -254658.47    89.755374   -254568.72    438.64674    5907.1037    16117.588 
  104500   -254660.68    94.476651   -254566.21    461.72026    6222.6817    16117.588 
  104600   -254659.98    95.331404   -254564.65    465.89756    6278.8737    16117.588 
  104700   -254658.97    89.331672   -254569.64    436.57605    5880.6212    16117.588 
  104800   -254659.99    89.051663   -254570.93    435.20761    5920.3576    16117.588 
  104900   -254662.24    93.366464   -254568.88    456.29463      6245.11    16117.588 
  105000   -254659.58    91.804674   -254567.78    448.66195    6044.9982    16117.588 
  105100   -254658.17    91.540124   -254566.63    447.36906    6052.0376    16117.588 
  105200   -254656.53    94.705557   -254561.83    462.83896     6410.956    16117.588 
  105300   -254658.05    95.722975   -254562.33    467.81122    6337.2262    16117.588 
  105400   -254656.15    90.435056   -254565.71    441.96844    6012.4994    16117.588 
  105500   -254656.21    89.908597    -254566.3    439.39556     5920.614    16117.588 
  105600   -254658.85    92.657126   -254566.19      452.828    6101.9962    16117.588 
  105700   -254659.87    94.239654   -254565.64    460.56203    6239.4425    16117.588 
  105800   -254660.55     95.47673   -254565.07    466.60779    6288.7333    16117.588 
  105900   -254660.67    95.177769   -254565.49    465.14672    6268.9968    16117.588 
  106000   -254661.64    93.299071   -254568.34    455.96527    6163.9928    16117.588 
  106100   -254659.84    89.236319    -254570.6    436.11005    5871.9642    16117.588 
  106200   -254659.28    91.066542   -254568.22     445.0546    6094.4872    16117.588 
  106300   -254661.64    97.452508   -254564.19    476.26368    6468.9821    16117.588 
  106400   -254658.93    93.064639   -254565.87    454.81957    6166.9273    16117.588 
  106500   -254660.79    93.194178    -254567.6    455.45264    6211.2963    16117.588 
  106600   -254659.87    90.934551   -254568.93    444.40954    6008.9648    16117.588 
  106700   -254659.22    91.670687   -254567.55    448.00714    6033.7378    16117.588 
  106800   -254657.94    95.535999   -254562.41    466.89745    6291.1773    16117.588 
  106900   -254656.46    93.571343   -254562.89     457.2959    6185.6293    16117.588 
  107000   -254657.79    92.354304   -254565.44    451.34807    6081.1604    16117.588 
  107100   -254655.24    88.507926   -254566.73    432.55029    5826.2517    16117.588 
  107200   -254657.19    92.536497   -254564.66    452.23847    6132.7179    16117.588 
  107300   -254653.01    94.699691   -254558.31    462.81029    6262.6544    16117.588 
  107400   -254651.67    91.649062   -254560.02    447.90145    6033.0509    16117.588 
  107500    -254654.2    91.783954   -254562.41    448.56069    6042.9356    16117.588 
  107600   -254655.86    91.947958   -254563.91     449.3622    6079.0855    16117.588 
  107700   -254657.26    92.221594   -254565.03    450.69949    6072.9162    16117.588 
  107800   -254661.98    92.813651   -254569.17    453.59296    6235.5949    16117.588 
  107900   -254660.61    88.410782    -254572.2    432.07554    5818.5043    16117.588 
  108000   -254659.11    89.269677   -254569.84    436.27307     5876.729    16117.588 
  108100   -254660.61    93.992659   -254566.61    459.35493    6189.7994    16117.588 
  108200   -254658.84    92.972348   -254565.86    454.36853    6215.9613    16117.588 
  108300   -254655.65    91.785894   -254563.86    448.57017    6044.1145    16117.588 
  108400   -254656.16    94.783333   -254561.38    463.21906    6240.2558    16117.588 
  108500   -254653.84    94.771826   -254559.07    463.16283    6240.6114    16117.588 
  108600   -254657.33    93.203657   -254564.13    455.49897    6139.5894    16117.588 
  108700   -254656.98    90.424438   -254566.56    441.91655    6059.0167    16117.588 
  108800   -254658.46    92.369512   -254566.09    451.42239    6084.0602    16117.588 
  108900   -254654.47    89.707384   -254564.76    438.41221    5907.2996    16117.588 
  109000    -254652.6    91.080026   -254561.52    445.12049    6037.7026    16117.588 
  109100   -254653.19    94.134928   -254559.05    460.05022    6258.8618    16117.588 
  109200   -254653.93    95.215944   -254558.72    465.33329    6269.0189    16117.588 
  109300   -254656.84    92.168078   -254564.67    450.43795    6105.3028    16117.588 
  109400    -254657.9    91.511945   -254566.39    447.23134    6020.2846    16117.588 
  109500   -254656.84    89.552309   -254567.29    437.65434    5929.1256    16117.588 
  109600   -254657.52    91.483806   -254566.04    447.09382    6021.0578    16117.588 
  109700    -254657.5    93.710341   -254563.79     457.9752    6214.1224    16117.588 
  109800   -254656.61    94.489433   -254562.12    461.78273    6221.8816    16117.588 
  109900   -254657.75    92.538491   -254565.21    452.24822    6091.1253    16117.588 
  110000   -254660.19    91.622033   -254568.57    447.76936    6079.9598    16117.588 
  110100   -254659.51    89.660957   -254569.85    438.18531    5894.3397    16117.588 
  110200   -254658.83    90.424755    -254568.4     441.9181     6133.815    16117.588 
  110300    -254658.3    94.249524   -254564.05    460.61026    6292.0959    16117.588 
  110400   -254657.77    94.440844   -254563.33    461.54527    6413.7809    16117.588 
  110500   -254657.91    93.110085    -254564.8    455.04167    6127.5517    16117.588 
  110600   -254658.44    91.292091   -254567.15    446.15689    6009.5915    16117.588 
  110700   -254655.18    88.498918   -254566.69    432.50627    5865.9366    16117.588 
  110800   -254655.79    94.109295   -254561.68    459.92495    6230.4652    16117.588 
  110900    -254654.5    94.713047   -254559.79    462.87557    6270.0788    16117.588 
  111000   -254655.73    93.834844   -254561.89    458.58367    6287.0273    16117.588 
  111100   -254654.35    90.573982   -254563.78    442.64739    5957.0357    16117.588 
  111200    -254660.2    94.821327   -254565.38    463.40475    6236.0976    16117.588 
  111300   -254657.94    90.196526   -254567.75    440.80271    5965.1162    16117.588 
  111400   -254657.41    86.116067    -254571.3    420.86095    5663.1491    16117.588 
  111500   -254659.26    89.455953   -254569.81    437.18343    5938.7174    16117.588 
  111600    -254657.2    91.977322   -254565.22     449.5057    6133.3249    16117.588 
  111700   -254658.05    92.870434   -254565.18    453.87047    6160.1995    16117.588 
  111800   -254657.38    88.883672   -254568.49    434.38662    5845.6054    16117.588 
  111900   -254659.44    91.322512   -254568.11    446.30556    6008.4166    16117.588 
  112000   -254660.14    93.183978   -254566.96     455.4028    6226.1636    16117.588 
  112100   -254657.87    91.534036   -254566.34     447.3393    6023.7216    16117.588 
  112200   -254658.15    91.221269   -254566.93    445.81077    6004.0872    16117.588 
  112300   -254656.65    90.338928   -254566.31    441.49865    5974.8227    16117.588 
  112400   -254660.37    94.630715   -254565.74     462.4732    6229.6097    16117.588 
  112500      -254657     91.43539   -254565.57    446.85721     6017.511    16117.588 
  112600   -254657.56    94.744371   -254562.81    463.02865    6273.0635    16117.588 
  112700   -254656.98    94.942697   -254562.04     463.9979    6249.5067    16117.588 
  112800   -254656.01    91.541195   -254564.46    447.37429    6175.4431    16117.588 
  112900    -254656.7    89.184365   -254567.52    435.85614    5868.7777    16117.588 
  113000   -254659.92    92.535034   -254567.39    452.23132    6088.7152    16117.588 
  113100   -254660.56    93.763762    -254566.8    458.23628    6217.0485    16117.588 
  113200   -254659.77    92.442258   -254567.33    451.77791    6138.4822    16117.588 
  113300   -254658.92    89.435789   -254569.48    437.08489     5885.499    16117.588 
  113400   -254661.86    93.575682   -254568.28    457.31711    6188.8201    16117.588 
  113500    -254660.7    92.764569   -254567.94    453.35309    6106.4189    16117.588 
  113600   -254661.11    89.879327   -254571.23    439.25252    5962.8454    16117.588 
  113700    -254662.2     90.70459   -254571.49    443.28569    6029.6536    16117.588 
  113800   -254659.67    92.498206   -254567.17    452.05133     6133.621    16117.588 
  113900   -254659.24    93.542478    -254565.7    457.15483      6158.47    16117.588 
  114000   -254659.71    93.034959   -254566.68    454.67452    6182.6309    16117.588 
  114100   -254661.42    93.478688   -254567.94    456.84308    6197.0188    16117.588 
  114200    -254659.7    90.005391    -254569.7    439.86861    5922.2123    16117.588 
  114300   -254660.42    88.102403   -254572.32    430.56845    5797.3874    16117.588 
  114400   -254660.63    87.433442   -254573.19    427.29914    5752.7345    16117.588 
  114500   -254659.59     91.51077   -254568.08     447.2256     6087.344    16117.588 
  114600   -254659.78     94.18798   -254565.59    460.30949    6201.2829    16117.588 
  114700   -254657.42    91.562811   -254565.86    447.47993    6121.1367    16117.588 
  114800   -254658.92    93.158897   -254565.76    455.28022    6131.6117    16117.588 
  114900   -254659.29    92.099708   -254567.19    450.10382    6096.4258    16117.588 
  115000    -254658.5    90.984237   -254567.51    444.65236    5987.7679    16117.588 
  115100   -254657.57    92.119848   -254565.45    450.20225    6119.8993    16117.588 
  115200   -254655.47     93.66499   -254561.81    457.75357    6166.9977    16117.588 
  115300   -254654.87    93.848727   -254561.02    458.65151    6229.2653    16117.588 
  115400   -254654.11    90.238309   -254563.87    441.00691    5990.7192    16117.588 
  115500   -254659.18    93.007475   -254566.17     454.5402    6123.0911    16117.588 
  115600   -254660.46    94.171743   -254566.29    460.23014    6200.1003    16117.588 
  115700   -254657.69    90.955602   -254566.73    444.51242    5984.6747    16117.588 
  115800   -254658.94    91.342799   -254567.59     446.4047    6012.2228    16117.588 
  115900   -254661.41    92.178022   -254569.23    450.48655    6097.6356    16117.588 
  116000   -254657.82    88.689928   -254569.13    433.43976    5835.3774    16117.588 
  116100   -254657.27    92.745653   -254564.52    453.26064    6132.7764    16117.588 
  116200   -254656.75    92.632435   -254564.11    452.70733    6096.8164    16117.588 
  116300   -254655.05    90.279471   -254564.77    441.20807    5939.5277    16117.588 
  116400   -254658.15     90.85715    -254567.3    444.03127    6028.7817    16117.588 
  116500   -254658.72    89.133555   -254569.59    435.60783    5864.1466    16117.588 
  116600   -254658.78    90.814808   -254567.97    443.82434    5973.6241    16117.588 
  116700   -254657.51    93.571728   -254563.94    457.29778    6228.1663    16117.588 
  116800   -254656.28    91.413796   -254564.86    446.75168    6067.8447    16117.588 
  116900   -254659.16    92.292375   -254566.86    451.04541    6072.6691    16117.588 
  117000   -254657.33     90.77714   -254566.55    443.64025    6024.5748    16117.588 
  117100   -254659.68    92.818603   -254566.87    453.61716    6105.1952    16117.588 
  117200   -254657.81    91.272024   -254566.54    446.05882    6041.3151    16117.588 
  117300   -254656.65    91.669805   -254564.98    448.00283     6058.595    16117.588 
  117400   -254654.31    92.672625   -254561.64    452.90375    6127.8672    16117.588 
  117500   -254657.58    93.792514   -254563.79    458.37679    6266.9181    16117.588 
  117600   -254657.32    90.160172   -254567.16    440.62505    6101.4747    16117.588 
  117700    -254657.8    91.229211   -254566.57    445.84958    6112.0995    16117.588 
  117800   -254659.49    93.825674   -254565.66    458.53885    6177.2334    16117.588 
  117900   -254658.47    93.778047    -254564.7    458.30609    6219.2761    16117.588 
  118000   -254658.71     95.33167   -254563.38    465.89886    6305.4412    16117.588 
  118100   -254656.69    92.250506   -254564.43    450.84079    6098.3953    16117.588 
  118200   -254659.34    93.011516   -254566.33    454.55995    6293.4282    16117.588 
  118300    -254658.6    92.233549   -254566.37    450.75792    6071.6359    16117.588 
  118400   -254655.86    93.072172   -254562.79    454.85638    6172.2442    16117.588 
  118500   -254653.94     93.68586   -254560.25    457.85556    6167.5459    16117.588 
  118600   -254654.76    93.253357   -254561.51    455.74186    6205.9036    16117.588 
  118700   -254657.21    92.122358   -254565.09    450.21451    6065.5475    16117.588 
  118800   -254659.14    89.495293   -254569.64    437.37569    5920.3352    16117.588 
  118900    -254659.5    91.685142   -254567.82    448.07778    6036.4689    16117.588 
  119000   -254656.11    91.694251   -254564.42     448.1223    6037.3126    16117.588 
  119100   -254657.03    93.896773   -254563.13    458.88632    6182.6423    16117.588 
  119200   -254657.34    92.081502   -254565.26    450.01484    6085.9943    16117.588 
  119300   -254659.33    89.772787   -254569.56    438.73184    5909.0598    16117.588 
  119400   -254658.85    88.509473   -254570.34    432.55785    5861.1605    16117.588 
  119500   -254660.97    92.200502   -254568.77    450.59641    6071.5157    16117.588 
  119600   -254661.34    93.346379      -254568    456.19647    6146.7397    16117.588 
  119700   -254658.53    91.832346    -254566.7    448.79719    6151.8174    16117.588 
  119800    -254660.9    97.343156   -254563.56    475.72927    6444.2609    16117.588 
  119900    -254657.1    94.681877   -254562.42    462.72323    6323.5796    16117.588 
  120000   -254656.88    91.708906   -254565.17    448.19392    6150.7389    16117.588 
  120100   -254657.79    89.043262   -254568.75    435.16655    5891.0368    16117.588 
  120200    -254656.1    87.760929   -254568.34    428.89962    5778.2149    16117.588 
  120300   -254659.54     94.67264   -254564.87    462.67809    6292.8056    16117.588 
  120400   -254659.38    94.673246   -254564.71    462.68105    6271.2251    16117.588 
  120500   -254662.13    96.096562   -254566.04    469.63699    6361.8088    16117.588 
  120600   -254659.41    91.071052   -254568.34    445.07664    5995.3783    16117.588 
  120700   -254660.53    92.563853   -254567.96    452.37216    6140.8384    16117.588 
  120800   -254660.08    91.951632   -254568.13    449.38015    6054.1258    16117.588 
  120900   -254660.45    92.191694   -254568.26    450.55337    6114.4806    16117.588 
  121000   -254661.02    92.341418   -254568.68    451.28509    6081.5546    16117.588 
  121100   -254658.17    90.788445   -254567.38     443.6955    5977.7585    16117.588 
  121200   -254657.45    94.096551   -254563.36    459.86267    6195.7295    16117.588 
  121300   -254656.39    93.301915   -254563.09    455.97917    6138.8507    16117.588 
  121400   -254657.29     90.67122   -254566.62     443.1226    5970.2483    16117.588 
  121500   -254660.69    90.973813   -254569.71    444.60142    5989.7793    16117.588 
  121600   -254660.05    89.786625   -254570.27    438.79947    5999.1546    16117.588 
  121700   -254658.26    93.656969   -254564.61    457.71437    6164.9962    16117.588 
  121800   -254655.66    93.726732   -254561.93    458.05531    6240.8436    16117.588 
  121900   -254657.78    92.994469   -254564.78    454.47664    6192.5266    16117.588 
  122000   -254659.59     92.07405   -254567.52    449.97843    6063.0617    16117.588 
  122100   -254657.34    90.720044   -254566.62    443.36121    5972.7869    16117.588 
  122200    -254657.5     94.03508   -254563.46    459.56225    6276.8627    16117.588 
  122300   -254656.43     95.14174   -254561.29    464.97065    6309.8804    16117.588 
  122400   -254661.86    95.205438   -254566.66    465.28195    6308.8988    16117.588 
  122500   -254658.56    89.180985   -254569.38    435.83962    5921.0017    16117.588 
  122600   -254661.19    91.989903    -254569.2    449.56719    6056.5273    16117.588 
  122700   -254661.69    92.441265   -254569.25    451.77306    6083.2348    16117.588 
  122800    -254659.7    92.284166   -254567.41    451.00529    6076.7226    16117.588 
  122900   -254660.16    95.361468    -254564.8    466.04449    6317.1834    16117.588 
  123000   -254658.85    92.497645   -254566.35    452.04859    6129.7668    16117.588 
  123100   -254661.57    91.196822   -254570.37    445.69129    6078.5336    16117.588 
  123200   -254660.85    90.508879   -254570.34    442.32922    5959.6426    16117.588 
  123300   -254660.86    92.826376   -254568.03    453.65514    6115.1797    16117.588 
  123400   -254660.79    94.486532   -254566.31    461.76856    6220.1131    16117.588 
  123500   -254658.51     91.80816   -254566.71    448.67899    6137.5192    16117.588 
  123600   -254658.64    91.707898   -254566.93    448.18899    6040.5102    16117.588 
  123700   -254658.68    91.594334   -254567.09    447.63399    6089.2806    16117.588 
  123800   -254662.09    94.368482   -254567.72    461.19163    6216.4127    16117.588 
  123900      -254662    90.720559   -254571.28    443.36373     6004.395    16117.588 
  124000   -254662.93     89.71705   -254573.21    438.45945    5934.4784    16117.588 
  124100   -254662.47    91.629645   -254570.84    447.80656    6034.1682    16117.588 
  124200   -254659.51     92.74552   -254566.76    453.25999    6109.4245    16117.588 
  124300   -254658.93    93.008674   -254565.92    454.54606    6126.8287    16117.588 
  124400    -254656.8    91.625632   -254565.18    447.78695    6034.2234    16117.588 
  124500   -254654.64    90.300857   -254564.34    441.31259    6081.7709    16117.588 
  124600   -254655.89    94.926399   -254560.96    463.91824    6286.3809    16117.588 
  124700   -254658.16    96.340848   -254561.82    470.83085    6395.5739    16117.588 
  124800   -254659.09    92.534914   -254566.55    452.23073    6119.2696    16117.588 
  124900   -254660.71    92.837374   -254567.88    453.70889    6113.1362    16117.588 
  125000   -254661.54    94.221165   -254567.32    460.47167    6205.6295    16117.588 
  125100   -254658.38    93.340512   -254565.04     456.1678    6148.0474    16117.588 
  125200   -254654.51    92.360214   -254562.15    451.37695    6084.0481    16117.588 
  125300    -254655.5    94.756922   -254560.74    463.08999    6242.3891    16117.588 
  125400    -254655.9    92.192119   -254563.71    450.55545    6072.7583    16117.588 
  125500   -254658.67    90.270985    -254568.4     441.1666    5944.7654    16117.588 
  125600   -254660.19    91.646616   -254568.54     447.8895    6093.5686    16117.588 
  125700   -254658.65     90.79529   -254567.86    443.72895    5980.4511    16117.588 
  125800   -254657.35     92.19178   -254565.16    450.55379    6166.1609    16117.588 
  125900   -254656.35    94.673188   -254561.68    462.68077    6233.8514    16117.588 
  126000    -254657.8    94.718831   -254563.08    462.90383    6263.6874    16117.588 
  126100   -254657.95    90.807477   -254567.14    443.78851    5975.4798    16117.588 
  126200   -254656.04    89.466592   -254566.57    437.23542    5890.5291    16117.588 
  126300   -254654.33    89.995176   -254564.34    439.81869    5923.7771    16117.588 
  126400   -254656.54    94.806335   -254561.73    463.33148    6243.7951    16117.588 
  126500   -254653.45    91.513322   -254561.94    447.23807     6103.893    16117.588 
  126600   -254657.07    92.297821   -254564.77    451.07202    6076.4946    16117.588 
  126700   -254658.82    89.384614   -254569.43    436.83479    5884.2164    16117.588 
  126800   -254660.05    91.905371   -254568.14    449.15407    6051.1456    16117.588 
  126900   -254657.54    92.166661   -254565.37    450.43103    6067.4322    16117.588 
  127000   -254655.95    93.136826   -254562.81    455.17236    6162.0725    16117.588 
  127100   -254658.18    95.333907   -254562.84    465.90979    6277.2644    16117.588 
  127200    -254660.4    92.519565   -254567.88    452.15572    6092.9105    16117.588 
  127300   -254660.71    91.264319   -254569.44    446.02116    6050.7729    16117.588 
  127400   -254658.74    90.441112    -254568.3    441.99804    5997.9732    16117.588 
  127500   -254657.22    91.637381   -254565.59    447.84437    6031.6276    16117.588 
  127600    -254658.6    94.001259    -254564.6    459.39696    6190.9013    16117.588 
  127700   -254657.16    91.243842   -254565.92    445.92109    6039.0546    16117.588 
  127800   -254659.17    87.834852   -254571.34    429.26089    5856.8106    16117.588 
  127900   -254662.82    89.779297   -254573.04    438.76366    5912.0237    16117.588 
  128000   -254659.87    89.955737   -254569.92    439.62594    5923.7517    16117.588 
  128100    -254658.3    90.945659   -254567.35    444.46383    6009.2196    16117.588 
  128200    -254662.3    94.377143   -254567.92    461.23395    6216.1657    16117.588 
  128300   -254659.83    89.731349    -254570.1    438.52933    5908.7172    16117.588 
  128400   -254662.06    90.900957   -254571.16    444.24536    5983.9604    16117.588 
  128500   -254661.74    92.130924   -254569.61    450.25638    6067.7252    16117.588 
  128600   -254659.19    92.614764   -254566.57    452.62097    6180.4085    16117.588 
  128700   -254657.24    93.577021   -254563.66    457.32365    6233.8124    16117.588 
  128800   -254657.11    93.932212   -254563.18    459.05952    6212.0922    16117.588 
  128900   -254658.24    90.448601   -254567.79    442.03464     6060.207    16117.588 
  129000   -254661.21    89.957536   -254571.25    439.63473    5922.8228    16117.588 
  129100   -254661.96    92.187872   -254569.77    450.53469    6110.4082    16117.588 
  129200   -254660.37    93.545133   -254566.83    457.16781    6191.3916    16117.588 
  129300   -254655.31    90.481289   -254564.83    442.19439     5958.426    16117.588 
  129400   -254659.81    95.964616   -254563.85    468.99215    6319.7124    16117.588 
  129500   -254660.01    91.087726   -254568.93    445.15813    5997.2076    16117.588 
  129600   -254661.66    90.649455   -254571.01    443.01624     6044.381    16117.588 
  129700   -254657.67    89.036254   -254568.64     435.1323    5888.2652    16117.588 
  129800   -254660.01    95.120974   -254564.89    464.86916    6288.9712    16117.588 
  129900   -254659.91    94.116939   -254565.79    459.96231    6198.6227    16117.588 
  130000   -254660.56     91.90264   -254568.66    449.14073    6108.1698    16117.588 
  130100   -254661.28    91.554323   -254569.73    447.43845    6082.4561    16117.588 
  130200   -254659.29    92.636266   -254566.65    452.72605    6099.3777    16117.588 
  130300   -254658.15    95.990306   -254562.15     469.1177    6325.2046    16117.588 
  130400   -254654.71    90.729919   -254563.98    443.40948    5975.5199    16117.588 
  130500   -254658.38    92.874643   -254565.51    453.89103    6118.4116    16117.588 
  130600   -254657.95    88.981187   -254568.97    434.86318     5861.101    16117.588 
  130700   -254659.54    90.036443    -254569.5    440.02036    5930.3032    16117.588 
  130800   -254656.74    93.817998   -254562.92    458.50134    6180.7324    16117.588 
  130900   -254655.46     92.21093   -254563.25    450.64738    6073.5892    16117.588 
  131000   -254659.89    93.077732   -254566.81    454.88356    6133.5435    16117.588 
  131100   -254657.53    89.444229   -254568.08    437.12613    5962.2802    16117.588 
  131200   -254655.43    90.900894   -254564.52    444.24506    5987.5101    16117.588 
  131300   -254658.98    94.781406    -254564.2    463.20964    6279.3123    16117.588 
  131400   -254656.97    91.765796    -254565.2    448.47195    6044.6448    16117.588 
  131500   -254657.99    91.505305   -254566.48    447.19889    6116.8885    16117.588 
  131600   -254656.19    89.888237   -254566.31    439.29606    5919.7353    16117.588 
  131700   -254655.23    93.289735   -254561.94    455.91964    6185.0932    16117.588 
  131800   -254655.14     95.50556   -254559.63    466.74868    6291.8783    16117.588 
  131900   -254656.27    93.832337   -254562.44    458.57142     6178.762    16117.588 
  132000   -254658.28    92.977658    -254565.3    454.39448    6168.4807    16117.588 
  132100   -254658.28    92.191636   -254566.08    450.55309    6170.6552    16117.588 
  132200   -254657.68    90.602967   -254567.08    442.78904    5961.0577    16117.588 
  132300   -254659.28     91.73198   -254567.55    448.30668    6040.8286    16117.588 
  132400   -254660.47    94.552166   -254565.92    462.08932    6227.0632    16117.588 
  132500   -254656.64    93.369377   -254563.27    456.30887    6177.5045    16117.588 
  132600   -254657.64    95.362028   -254562.28    466.04722    6281.3789    16117.588 
  132700   -254655.78    89.949204   -254565.84    439.59401    6003.1107    16117.588 
  132800   -254658.44    89.812834   -254568.63    438.92756    5913.0994    16117.588 
  132900   -254658.89    91.864348   -254567.03    448.95358    6050.7421    16117.588 
  133000   -254657.93    93.350317   -254564.58    456.21572    6149.0196    16117.588 
  133100    -254658.7    94.520172   -254564.18    461.93296    6342.0202    16117.588 
  133200   -254659.94    92.671018   -254567.27    452.89589    6197.6994    16117.588 
  133300   -254660.74     90.92699   -254569.81    444.37259    5988.2743    16117.588 
  133400   -254661.15      92.0686   -254569.08    449.95179    6090.3235    16117.588 
  133500   -254659.56    91.489771   -254568.07    447.12298     6049.893    16117.588 
  133600   -254656.49    91.842334   -254564.65      448.846    6073.4481    16117.588 
  133700   -254657.56    95.486067   -254562.08    466.65342    6292.3069    16117.588 
  133800   -254652.66     92.07077   -254560.59     449.9624    6097.6576    16117.588 
  133900   -254656.97    92.739747   -254564.23    453.23178    6109.9771    16117.588 
  134000   -254657.48    90.032701   -254567.44    440.00208     6019.668    16117.588 
  134100   -254658.96    92.138477   -254566.82    450.29329    6127.2513    16117.588 
  134200   -254659.55    93.314559   -254566.24    456.04096    6271.9367    16117.588 
  134300   -254657.96    90.716885   -254567.24    443.34578    5975.2642    16117.588 
  134400   -254658.56    92.466366   -254566.09    451.89573    6205.0527    16117.588 
  134500    -254656.4    92.985314   -254563.42     454.4319    6123.9407    16117.588 
  134600   -254661.89    97.277503   -254564.62    475.40841    6410.2977    16117.588 
  134700   -254659.37    90.231748   -254569.14    440.97485    5944.3769    16117.588 
  134800   -254660.37    91.105407   -254569.27    445.24454    6067.7964    16117.588 
  134900   -254658.46    92.078569   -254566.39    450.00051    6064.3891    16117.588 
  135000   -254656.66     92.71392   -254563.95    453.10556    6104.0859    16117.588 
  135100   -254657.63    93.152845   -254564.48    455.25064    6133.1569    16117.588 
  135200   -254659.86    91.171303   -254568.69    445.56658    6134.4773    16117.588 
  135300   -254662.23    91.602414   -254570.62    447.67348    6035.2089    16117.588 
  135400   -254663.39    93.224247   -254570.16    455.59959    6140.9291    16117.588 
  135500   -254660.75    93.103977   -254567.64    455.01182    6132.2464    16117.588 
  135600    -254658.2     92.36433   -254565.84    451.39706    6287.7657    16117.588 
  135700   -254656.49    92.402865   -254564.09    451.58539    6087.8184    16117.588 
  135800   -254654.67    94.367358    -254560.3    461.18614    6210.4846    16117.588 
  135900   -254655.47    94.544231   -254560.92    462.05054    6219.7944    16117.588 
  136000   -254653.57    87.590012   -254565.98    428.06432    5746.6496    16117.588 
  136100   -254659.02    93.279705   -254565.74    455.87063    6147.2905    16117.588 
  136200   -254656.52    90.323435    -254566.2    441.42293    6052.1731    16117.588 
  136300   -254656.72    92.563489   -254564.15    452.37038    6091.3698    16117.588 
  136400   -254655.07    94.492986   -254560.58     461.8001    6298.6365    16117.588 
  136500   -254654.42    95.092148   -254559.33    464.72828    6259.5582    16117.588 
  136600   -254653.62    90.619495      -254563    442.86982    6031.6903    16117.588 
  136700   -254656.05    90.007981   -254566.05    439.88126    5928.7406    16117.588 
  136800   -254657.75    92.778302   -254564.97     453.4202    6134.4427    16117.588 
  136900   -254657.27     94.05252   -254563.22    459.64748    6196.4084    16117.588 
  137000   -254658.28    94.414615   -254563.87    461.41708    6249.9045    16117.588 
  137100   -254658.99    91.470618   -254567.51    447.02937    6069.1036    16117.588 
  137200   -254660.27    90.600842   -254569.67    442.77866    6107.4646    16117.588 
  137300   -254660.92    92.502924   -254568.41    452.07439    6093.7457    16117.588 
  137400   -254658.63    93.364617   -254565.27    456.28561    6150.9159    16117.588 
  137500   -254658.26    94.725302   -254563.54    462.93546    6270.7578    16117.588 
  137600   -254660.47    91.303455   -254569.17    446.21242     6014.935    16117.588 
  137700   -254660.05    89.665428   -254570.39    438.20716    5904.2597    16117.588 
  137800   -254659.54    90.852908   -254568.69    444.01054    6013.4727    16117.588 
  137900   -254662.68    96.995298   -254565.68    474.02924    6487.0512    16117.588 
  138000    -254659.1    93.922907   -254565.18    459.01404    6183.1808    16117.588 
  138100   -254659.01    89.812803   -254569.19     438.9274    5913.9659    16117.588 
  138200   -254659.94    88.053828   -254571.89    430.33106    5797.9662    16117.588 
  138300   -254661.06    90.847669   -254570.21    443.98494    5983.2046    16117.588 
  138400   -254660.48    92.768449   -254567.71    453.37205    6134.2357    16117.588 
  138500   -254655.25    89.346856    -254565.9    436.65026    5969.3278    16117.588 
  138600   -254656.38    92.659005   -254563.72    452.83718    6164.1724    16117.588 
  138700   -254659.85    97.480556   -254562.36    476.40076    6422.1123    16117.588 
  138800   -254656.16    90.248696   -254565.91    441.05767    5967.2816    16117.588 
  138900   -254660.84    92.018342   -254568.83    449.70617    6280.2154    16117.588 
  139000   -254659.99      89.9395   -254570.05    439.54659    5923.7577    16117.588 
  139100   -254660.36    93.000738   -254567.36    454.50728    6219.5302    16117.588 
  139200   -254657.12    93.006687   -254564.12    454.53635    6127.0308    16117.588 
  139300   -254656.22    92.652728   -254563.57     452.8065    6103.0354    16117.588 
  139400   -254655.03    91.372274   -254563.66    446.54875    6074.7113    16117.588 
  139500   -254656.59    92.438165   -254564.15    451.75791    6090.1839    16117.588 
  139600   -254654.99    91.171665   -254563.82    445.56835    6005.4429    16117.588 
  139700   -254657.69    94.874025   -254562.82    463.66229    6320.9981    16117.588 
  139800   -254659.86    92.448832   -254567.42    451.81004    6092.0466    16117.588 
  139900   -254660.19    90.376027   -254569.82    441.67996    5954.1905    16117.588 
  140000      -254660     92.11419   -254567.89    450.17459    6192.9296    16117.588 
  140100   -254657.39    91.155899   -254566.23     445.4913    6078.2463    16117.588 
  140200   -254658.96    93.041195   -254565.92    454.70499    6186.1115    16117.588 
  140300   -254659.87    93.416848   -254566.46    456.54087    6184.8263    16117.588 
  140400   -254658.75    90.205387   -254568.55    440.84601    5943.2988    16117.588 
  140500   -254658.69    88.658125   -254570.03    433.28434    5839.4802    16117.588 
  140600   -254659.14    91.015351   -254568.12    444.80442    5997.2178    16117.588 
  140700   -254658.12    94.120475      -254564    459.97958    6227.7608    16117.588 
  140800   -254655.92    91.685087   -254564.23    448.07751    6087.0233    16117.588 
  140900   -254659.85    92.742665   -254567.11    453.24604    6111.7455    16117.588 
  141000   -254658.77    90.078958   -254568.69    440.22814    5933.2892    16117.588 
  141100   -254662.42    93.445744   -254568.98    456.68208    6187.2196    16117.588 
  141200   -254659.86    89.577909   -254570.29    437.77945    5937.6806    16117.588 
  141300   -254659.34    89.718233   -254569.63    438.46523    5936.0234    16117.588 
  141400   -254660.97    96.471299    -254564.5    471.46838    6425.3495    16117.588 
  141500   -254658.82    94.863498   -254563.95    463.61084    6298.9147    16117.588 
  141600   -254660.68    92.596583   -254568.08    452.53212    6123.0633    16117.588 
  141700   -254659.84    90.364841   -254569.47    441.62529    6013.8975    16117.588 
  141800    -254659.1    89.735134   -254569.36    438.54783    5911.3061    16117.588 
  141900   -254656.32      90.3925   -254565.93    441.76046    5954.1488    16117.588 
  142000   -254656.07    92.907971   -254563.16    454.05391    6150.5648    16117.588 
  142100   -254655.77    91.234798   -254564.53    445.87689    6010.6146    16117.588 
  142200   -254658.67     93.54486   -254565.13    457.16648    6163.7283    16117.588 
  142300   -254657.26    89.951143   -254567.31    439.60349    5926.8224    16117.588 
  142400    -254661.4    90.770596   -254570.63    443.60827    5980.8398    16117.588 
  142500   -254656.07    86.777437   -254569.29    424.09316    5714.5986    16117.588 
  142600   -254656.78    92.713788   -254564.07    453.10491    6109.2264    16117.588 
  142700   -254653.71    91.577581   -254562.13    447.55212    6030.9665    16117.588 
  142800   -254659.04    96.192684   -254562.85    470.10675    6382.8783    16117.588 
  142900   -254658.42    91.613846    -254566.8    447.72935    6088.1302    16117.588 
  143000   -254656.21    88.797822   -254567.41    433.96706    5847.5619    16117.588 
  143100   -254656.78    91.795582   -254564.98    448.61752    6091.3363    16117.588 
  143200   -254657.74    93.187075   -254564.55    455.41793    6236.5945    16117.588 
  143300   -254660.43    90.059264   -254570.37     440.1319    5956.1457    16117.588 
  143400   -254660.43    89.594059   -254570.84    437.85837    5901.4225    16117.588 
  143500   -254661.44    94.095967   -254567.35    459.85981    6199.3887    16117.588 
  143600   -254657.34    92.483469   -254564.85    451.97931    6118.3187    16117.588 
  143700   -254657.34    93.322012   -254564.02    456.07739    6148.6203    16117.588 
  143800    -254655.7    90.782707   -254564.92    443.66746    5980.3652    16117.588 
  143900   -254660.32    92.091348   -254568.23    450.06297    6068.0011    16117.588 
  144000   -254660.71     90.81183    -254569.9    443.80979    5982.8219    16117.588 
  144100    -254658.4    92.020114   -254566.38    449.71484    6062.8008    16117.588 
  144200   -254654.51    90.838017   -254563.67    443.93776    5983.7483    16117.588 
  144300   -254656.52    93.603294   -254562.92    457.45205    6247.0309    16117.588 
  144400   -254659.01    92.673329   -254566.34    452.90718      6106.42    16117.588 
  144500   -254659.11    90.226877   -254568.88    440.95104    5991.5651    16117.588 
  144600   -254660.21    91.681769   -254568.53    448.06129    6039.4796    16117.588 
  144700   -254660.22    93.069688   -254567.15    454.84425    6246.1578    16117.588 
  144800   -254660.21    93.413432    -254566.8    456.52417    6191.9362    16117.588 
  144900    -254661.2    90.609549   -254570.59    442.82121    5969.4695    16117.588 
  145000   -254661.12    87.238645   -254573.89    426.34715    5745.8642    16117.588 
  145100    -254659.7     90.75556   -254568.94    443.53479    5973.6146    16117.588 
  145200   -254659.73    93.450174   -254566.28    456.70373    6159.5879    16117.588 
  145300   -254656.33    89.351858   -254566.98     436.6747    5884.7112    16117.588 
  145400   -254658.64    91.556525   -254567.08    447.44921    6125.2765    16117.588 
  145500   -254659.82    92.973183   -254566.85    454.37261    6126.1219    16117.588 
  145600   -254657.61    92.342881   -254565.26    451.29224    6084.3282    16117.588 
  145700   -254655.47    91.012774   -254564.45    444.79183    5995.6989    16117.588 
  145800   -254656.72    93.215463    -254563.5    455.55667    6142.2865    16117.588 
  145900   -254658.34    92.091958   -254566.25    450.06594    6068.0289    16117.588 
  146000   -254659.64    90.254151   -254569.38    441.08433    5977.8352    16117.588 
  146100   -254658.87    91.131486   -254567.74    445.37199    6033.6056    16117.588 
  146200   -254657.63    93.278992   -254564.35    455.86714     6219.665    16117.588 
  146300    -254657.7    92.941192   -254564.76    454.21627    6264.3706    16117.588 
  146400   -254658.82    92.560531   -254566.26    452.35593    6097.5431    16117.588 
  146500   -254660.28    92.252755   -254568.03    450.85178    6076.5255    16117.588 
  146600   -254662.77    92.654413   -254570.11    452.81474    6103.8122    16117.588 
  146700   -254663.33     92.40141   -254570.93    451.57828    6087.7355    16117.588 
  146800   -254659.85    90.728139   -254569.13    443.40077    6006.2679    16117.588 
  146900   -254659.47     93.69376   -254565.77    457.89417    6172.8886    16117.588 
  147000   -254658.39    93.938478   -254564.45    459.09014    6225.1118    16117.588 
  147100   -254656.53     91.88635   -254564.64    449.06111    6056.3858    16117.588 
  147200    -254656.2    88.615828   -254567.58    433.07762    5898.9526    16117.588 
  147300   -254657.36    88.695489   -254568.66    433.46694    5914.8637    16117.588 
  147400   -254657.02     91.49551   -254565.52    447.15102    6054.6325    16117.588 
  147500   -254655.29     91.38732   -254563.91    446.62229     6019.261    16117.588 
  147600   -254658.32    91.471726   -254566.85    447.03479    6024.2879    16117.588 
  147700   -254660.79    89.700442   -254571.09    438.37828    5962.2394    16117.588 
  147800    -254662.1    92.022074   -254570.08    449.72441    6132.3262    16117.588 
  147900   -254660.32    92.196955   -254568.12    450.57908    6073.3741    16117.588 
  148000   -254658.52    93.052915   -254565.47    454.76227     6130.886    16117.588 
  148100   -254656.34    95.019592   -254561.32    464.37369    6261.9026    16117.588 
  148200      -254657    97.282959   -254559.72    475.43508    6546.8485    16117.588 
  148300   -254657.77    92.112131   -254565.66    450.16453    6067.0288    16117.588 
  148400   -254656.74    89.938788    -254566.8    439.54311    5923.5426    16117.588 
  148500   -254658.85    91.842314   -254567.01     448.8459    6121.9973    16117.588 
  148600   -254659.02    92.863963   -254566.15    453.83884    6181.3777    16117.588 
  148700   -254661.38    93.794006   -254567.59    458.38408    6178.1975    16117.588 
  148800   -254659.39     88.45458   -254570.94    432.28959    5857.2467    16117.588 
  148900   -254660.39    89.912573   -254570.48    439.41499    5924.6068    16117.588 
  149000   -254661.33      94.5102   -254566.82    461.88422    6229.2931    16117.588 
  149100   -254660.55    94.270968   -254566.28    460.71506    6211.1763    16117.588 
  149200   -254657.93    90.464339   -254567.47    442.11155     5958.262    16117.588 
  149300   -254659.51    92.545772   -254566.96     452.2838    6098.6337    16117.588 
  149400   -254657.89    93.638734   -254564.25    457.62525    6171.4129    16117.588 
  149500   -254653.45    91.953006    -254561.5    449.38687    6160.1183    16117.588 
  149600   -254656.59    94.876467   -254561.71    463.67422    6277.8084    16117.588 
  149700   -254658.49    91.097607    -254567.4    445.20642    6029.8063    16117.588 
  149800   -254658.33     90.84527   -254567.48    443.97321    5985.6005    16117.588 
  149900   -254659.49    93.681464   -254565.81    457.83408    6173.8901    16117.588 
  150000   -254657.54    92.939877    -254564.6    454.20984    6122.6401    16117.588 
  150100   -254657.15    91.896074   -254565.25    449.10864    6054.3527    16117.588 
  150200   -254658.53    90.048433   -254568.49    440.07896    5933.9584    16117.588 
  150300   -254662.47    92.288585   -254570.18    451.02689    6106.9561    16117.588 
  150400   -254658.68    89.350696   -254569.33    436.66902    5911.0468    16117.588 
  150500   -254661.16    96.451931   -254564.71    471.37373    6359.3622    16117.588 
  150600   -254657.93    93.563728   -254564.37    457.25869    6212.5905    16117.588 
  150700   -254655.76    90.383598   -254565.38    441.71696    5955.5058    16117.588 
  150800   -254657.52    91.289246   -254566.24    446.14298    6013.9686    16117.588 
  150900   -254660.97    90.592283   -254570.37    442.73683    6071.2247    16117.588 
  151000   -254663.19    91.339644   -254571.85    446.38928    6100.0932    16117.588 
  151100   -254662.41     91.07942   -254571.33    445.11753    6034.8512    16117.588 
  151200   -254658.67    92.004468   -254566.66    449.63837    6094.2219    16117.588 
  151300   -254657.77    92.900287   -254564.87    454.01636    6119.5594    16117.588 
  151400   -254658.52    92.418991    -254566.1     451.6642    6088.3134    16117.588 
  151500   -254662.85    93.380096   -254569.47    456.36125    6153.2313    16117.588 
  151600    -254661.4    89.541166   -254571.86    437.59988    5927.2789    16117.588 
  151700   -254661.38     90.64102   -254570.73    442.97501    5970.2064    16117.588 
  151800   -254659.42    91.116054    -254568.3    445.29657    6001.8952    16117.588 
  151900   -254659.51    92.568117   -254566.94      452.393    6098.7033    16117.588 
  152000   -254658.61    91.104724    -254567.5     445.2412    5999.2612    16117.588 
  152100   -254657.67    89.967773    -254567.7    439.68476    5923.5344    16117.588 
  152200   -254655.95    91.026972   -254564.92    444.86121    5993.4713    16117.588 
  152300   -254655.89    94.169131   -254561.72    460.21738    6231.9746    16117.588 
  152400   -254653.44    90.757457   -254562.69    443.54406    5974.2501    16117.588 
  152500   -254658.54    92.533262   -254566.01    452.22266    6151.2407    16117.588 
  152600   -254659.89    90.281133   -254569.61     441.2162    5944.3767    16117.588 
  152700   -254657.23    88.738828    -254568.5    433.67874     5968.868    16117.588 
  152800   -254659.12    92.732696   -254566.39    453.19732    6253.5626    16117.588 
  152900   -254657.51    91.129863   -254566.38    445.36406    6039.9727    16117.588 
  153000   -254656.42    89.080516   -254567.34    435.34862    5865.3753    16117.588 
  153100   -254659.95    90.029755   -254569.92    439.98768    5970.8505    16117.588 
  153200   -254659.55     88.90733   -254570.64    434.50223    5854.1092    16117.588 
  153300   -254659.72    92.208567   -254567.51    450.63583     6072.703    16117.588 
  153400   -254656.65    92.473319   -254564.18    451.92971    6203.5969    16117.588 
  153500   -254656.99    91.973214   -254565.02    449.48563    6056.6875    16117.588 
  153600    -254657.9    90.097606    -254567.8    440.31927     5932.934    16117.588 
  153700   -254657.62    89.279845   -254568.34    436.32277    5878.0438    16117.588 
  153800   -254656.75    94.710998   -254562.04    462.86555    6322.0224    16117.588 
  153900   -254655.01     93.21336    -254561.8    455.54639    6138.7279    16117.588 
  154000   -254657.15    91.450756   -254565.69     446.9323     6073.842    16117.588 
  154100   -254655.81     87.74135   -254568.07    428.80393    5775.6091    16117.588 
  154200   -254657.79    90.699674   -254567.09    443.26166     6094.671    16117.588 
  154300   -254657.28    92.750071   -254564.53    453.28224    6109.1804    16117.588 
  154400   -254655.35     95.03832   -254560.31    464.46522    6319.6895    16117.588 
  154500   -254655.52    93.994038   -254561.53    459.36167     6266.866    16117.588 
  154600   -254656.46    91.647209   -254564.81     447.8924    6058.6133    16117.588 
  154700   -254655.02    89.466188   -254565.55    437.23345     5953.955    16117.588 
  154800   -254656.86    91.997533   -254564.86    449.60448    6084.1826    16117.588 
  154900      -254657    92.979478   -254564.02    454.40338    6123.3944    16117.588 
  155000   -254656.04    93.417268   -254562.62    456.54291    6225.1135    16117.588 
  155100      -254658    92.218589   -254565.78    450.68481    6073.9636    16117.588 
  155200   -254657.25     89.12917   -254568.12     435.5864    5868.9449    16117.588 
  155300    -254657.4    91.318155   -254566.08    446.28426    6083.4853    16117.588 
  155400   -254654.25    92.918048   -254561.33    454.10316    6222.0591    16117.588 
  155500   -254655.97    94.318337   -254561.65    460.94657    6308.8608    16117.588 
  155600   -254657.02     93.12203    -254563.9    455.10005    6132.8595    16117.588 
  155700   -254659.77    93.717379   -254566.05     458.0096    6172.2417    16117.588 
  155800   -254659.53    91.661284   -254567.87    447.96118    6035.7909    16117.588 
  155900   -254660.74    92.263984   -254568.48    450.90666    6232.9625    16117.588 
  156000   -254656.86    89.433938   -254567.42    437.07584    5926.6899    16117.588 
  156100   -254654.24    92.979327   -254561.26    454.40264    6144.6774    16117.588 
  156200   -254656.14    93.001115   -254563.14    454.50912    6212.1851    16117.588 
  156300   -254656.35    89.830338   -254566.52     439.0131    5956.8619    16117.588 
  156400    -254656.7    89.974703   -254566.73    439.71863    6066.4395    16117.588 
  156500   -254657.82    92.595848   -254565.22    452.52852    6096.5738    16117.588 
  156600   -254657.03    93.926704    -254563.1     459.0326    6219.6317    16117.588 
  156700   -254658.96     93.45319   -254565.51    456.71847    6152.6843    16117.588 
  156800   -254658.82    89.872729   -254568.95    439.22027    5961.9723    16117.588 
  156900   -254657.69    89.671015   -254568.02    438.23447    5897.9648    16117.588 
  157000   -254654.59    89.980165   -254564.61    439.74533    5955.6381    16117.588 
  157100   -254656.58    92.974264    -254563.6    454.37789    6121.9812    16117.588 
  157200   -254658.76    93.200436   -254565.56    455.48323     6135.585    16117.588 
  157300   -254659.15     90.58009   -254568.57    442.67724    6010.4937    16117.588 
  157400   -254658.36    90.121883   -254568.24    440.43792     5934.159    16117.588 
  157500    -254657.3    91.049669   -254566.25    444.97214    5995.4121    16117.588 
  157600   -254657.59    91.526896   -254566.06    447.30441    6025.2145    16117.588 
  157700   -254657.11    92.014795    -254565.1    449.68884    6059.5808    16117.588 
  157800   -254658.41    92.366513   -254566.05    451.40773    6146.7912    16117.588 
  157900   -254662.18    90.997518   -254571.19    444.71727    6128.2905    16117.588 
  158000   -254661.96    90.372594   -254571.58    441.66318    5950.1312    16117.588 
  158100   -254661.76    92.083175   -254569.68    450.02302    6063.2142    16117.588 
  158200   -254659.49    92.787292   -254566.71    453.46414    6109.1375    16117.588 
  158300   -254656.31    94.035404   -254562.28    459.56383    6278.6081    16117.588 
  158400   -254658.31    97.558801   -254560.75    476.78315    6497.8537    16117.588 
  158500   -254657.61     90.34475   -254567.27     441.5271    5944.8388    16117.588 
  158600   -254657.95    89.044513   -254568.91    435.17266    5902.0264    16117.588 
  158700   -254662.01    92.256013   -254569.76    450.86771    6074.5628    16117.588 
  158800   -254662.73    94.014722   -254568.71    459.46275    6253.8784    16117.588 
  158900   -254660.03    90.210699   -254569.82    440.87198    5940.1375    16117.588 
  159000    -254659.6     89.80519    -254569.8     438.8902    5911.0606    16117.588 
  159100   -254657.74     91.80571   -254565.93    448.66701    6042.4102    16117.588 
  159200   -254655.37    91.649722   -254563.72    447.90468    6034.4974    16117.588 
  159300   -254656.09    93.116208   -254562.98     455.0716     6129.181    16117.588 
  159400   -254656.99    93.482122   -254563.51    456.85987    6259.9678    16117.588 
  159500   -254659.05    90.412758   -254568.64    441.85947    5952.2132    16117.588 
  159600   -254660.85    90.885589   -254569.96    444.17025    6069.8893    16117.588 
  159700   -254659.66    91.663223      -254568    447.97066    6070.0883    16117.588 
  159800   -254659.97    95.555281   -254564.42    466.99168    6290.0072    16117.588 
  159900   -254656.24    91.265098   -254564.98    446.02497     6004.767    16117.588 
  160000   -254659.91    93.325865   -254566.59    456.09622    6194.8269    16117.588 
  160100   -254659.67    92.155946   -254567.51    450.37866    6109.5988    16117.588 
  160200   -254659.28    91.604507   -254567.68    447.68371    6030.7994    16117.588 
  160300   -254660.83     92.20216   -254568.63    450.60452    6101.8971    16117.588 
  160400    -254662.2    91.297827    -254570.9    446.18492    6008.9972    16117.588 
  160500   -254664.27    92.316354   -254571.95     451.1626    6196.1578    16117.588 
  160600   -254660.86    91.336165   -254569.52    446.37228    6010.1927    16117.588 
  160700   -254659.47    93.749192   -254565.72    458.16508    6204.0134    16117.588 
  160800   -254659.25    92.529847   -254566.72    452.20597    6088.0236    16117.588 
  160900   -254660.95    91.204562   -254569.74    445.72912    5997.2189    16117.588 
  161000   -254659.21    89.407476    -254569.8    436.94652    5883.0803    16117.588 
  161100   -254659.05    91.824385   -254567.22    448.75828    6177.6456    16117.588 
  161200   -254658.73    92.816025   -254565.92    453.60456    6107.9858    16117.588 
  161300   -254658.75    92.089564   -254566.66    450.05425     6061.509    16117.588 
  161400   -254658.59    92.297736   -254566.29    451.07161    6073.3651    16117.588 
  161500   -254656.42    94.312966   -254562.11    460.92031    6202.9546    16117.588 
  161600   -254654.23    94.325854    -254559.9     460.9833    6208.2191    16117.588 
  161700    -254653.7    91.508537   -254562.19    447.21469    6021.5604    16117.588 
  161800   -254655.72    91.302655   -254564.41    446.20851    6008.0533    16117.588 
  161900   -254657.34    90.540626    -254566.8    442.48437    6006.5033    16117.588 
  162000   -254660.76    92.411872   -254568.35    451.62941    6080.8677    16117.588 
  162100   -254661.25    92.511339   -254568.74    452.11552    6088.9799    16117.588 
  162200   -254660.73      95.3023   -254565.43    465.75533    6272.8707    16117.588 
  162300   -254656.19    92.195525   -254563.99    450.57209    6101.1554    16117.588 
  162400   -254658.19    91.597238    -254566.6    447.64818    6060.8375    16117.588 
  162500   -254660.64    91.517632   -254569.12    447.25914    6073.0254    16117.588 
  162600   -254660.49    89.245645   -254571.24    436.15563    5872.4698    16117.588 
  162700   -254662.21    92.095204   -254570.11    450.08181    6063.0026    16117.588 
  162800   -254656.83     91.18584   -254565.65    445.63762    6002.0272    16117.588 
  162900      -254657    93.447609   -254563.55     456.6912    6151.7887    16117.588 
  163000   -254654.23    90.705384   -254563.53    443.28957    5969.7267    16117.588 
  163100   -254657.27    92.703616   -254564.57     453.0552    6134.0211    16117.588 
  163200   -254656.79    88.179899   -254568.61    430.94718    5801.6213    16117.588 
  163300   -254657.34    90.499705   -254566.84    442.28439    5990.7641    16117.588 
  163400   -254654.48    90.652478   -254563.83    443.03101    6002.7894    16117.588 
  163500   -254656.69    92.126387   -254564.56    450.23421    6062.6389    16117.588 
  163600   -254657.78    91.773358   -254566.01    448.50891    6038.5192    16117.588 
  163700   -254659.86    92.491383   -254567.37    452.01799    6086.7222    16117.588 
  163800   -254661.21     89.81951   -254571.39    438.96018    5910.2891    16117.588 
  163900   -254662.44    90.256976   -254572.19    441.09814    6143.7958    16117.588 
  164000   -254659.84    92.321116   -254567.52    451.18587    6074.7386    16117.588 
  164100   -254657.78    91.900276   -254565.88    449.12917    6047.2122    16117.588 
  164200   -254658.73    93.729291      -254565    458.06781     6161.486    16117.588 
  164300   -254653.78    90.143289   -254563.64    440.54253     5956.464    16117.588 
  164400   -254654.52    94.038831   -254560.48    459.58058    6242.0184    16117.588 
  164500   -254651.17    91.782492   -254559.39    448.55354    6038.1404    16117.588 
  164600   -254656.79    93.381583   -254563.41    456.36852    6143.5232    16117.588 
  164700   -254658.83    91.904727   -254566.93    449.15092     6045.022    16117.588 
  164800   -254659.47    90.959445   -254568.51     444.5312    5983.9895    16117.588 
  164900   -254659.53    92.046175   -254567.48     449.8422    6055.2536    16117.588 
  165000   -254657.99    94.683395    -254563.3    462.73065    6311.8718    16117.588 
  165100    -254654.8    91.779681   -254563.02     448.5398    6037.9811    16117.588 
  165200   -254660.13    92.194159   -254567.94    450.56542    6136.8434    16117.588 
  165300   -254660.16     89.59525   -254570.56    437.86419    5893.7766    16117.588 
  165400   -254660.05    91.954609   -254568.09     449.3947    6078.6318    16117.588 
  165500   -254658.52    93.835996   -254564.69     458.5893    6267.2778    16117.588 
  165600   -254656.26    92.193913   -254564.07    450.56421      6139.74    16117.588 
  165700   -254658.02    93.425575   -254564.59    456.58352    6147.0158    16117.588 
  165800   -254660.17     90.58174   -254569.59    442.68531    5959.7519    16117.588 
  165900   -254661.45    89.805785   -254571.65     438.8931    5906.7172    16117.588 
  166000   -254662.93     92.72762    -254570.2    453.17251    6101.6158    16117.588 
  166100   -254660.92    93.506821   -254567.41    456.98058    6183.9451    16117.588 
  166200      -254660    94.424586   -254565.58    461.46582     6215.794    16117.588 
  166300    -254658.5    92.988649   -254565.52     454.4482    6157.4267    16117.588 
  166400   -254660.98    90.474036    -254570.5    442.15894    5951.6609    16117.588 
  166500   -254659.22    87.924885   -254571.29    429.70089    5887.1575    16117.588 
  166600   -254659.25    91.816594   -254567.43     448.7202    6094.0142    16117.588 
  166700   -254658.45    92.926506   -254565.53     454.1445    6112.7608    16117.588 
  166800   -254659.83    92.967105   -254566.87    454.34291    6115.0802    16117.588 
  166900   -254660.73    90.238286   -254570.49     441.0068    5937.3995    16117.588 
  167000   -254663.45    91.252107   -254572.19    445.96148    6106.9231    16117.588 
  167100   -254660.67    90.014246   -254570.66    439.91188    5920.4835    16117.588 
  167200   -254660.08    91.303551   -254568.77    446.21289      6006.73    16117.588 
  167300   -254658.79    92.949579   -254565.85    454.25726    6263.5307    16117.588 
  167400   -254657.49    93.280798   -254564.21    455.87597    6138.3893    16117.588 
  167500   -254657.53    94.251302   -254563.27    460.61895    6252.0504    16117.588 
  167600    -254658.7    93.801194    -254564.9    458.41922    6217.6142    16117.588 
  167700    -254662.2     92.53454   -254569.66     452.2289     6086.064    16117.588 
  167800   -254661.24    90.238112      -254571    441.00595    5937.1543    16117.588 
  167900   -254660.44    90.514871   -254569.92     442.3585    6024.0699    16117.588 
  168000   -254661.56    95.892121   -254565.67    468.63786    6310.7512    16117.588 
  168100   -254660.28    95.068435   -254565.21    464.61239    6285.4066    16117.588 
  168200   -254659.26    92.100923   -254567.16    450.10976    6094.0197    16117.588 
  168300   -254658.71     92.12938   -254566.58    450.24883    6112.5466    16117.588 
  168400   -254657.49    92.374106   -254565.12    451.44484    6079.7813    16117.588 
  168500   -254655.96    92.042583   -254563.92    449.82464    6052.9112    16117.588 
  168600   -254656.94    93.625391   -254563.31    457.56004    6208.9777    16117.588 
  168700   -254658.85    93.371708   -254565.47    456.32026    6146.8454    16117.588 
  168800   -254660.28      92.0883   -254568.19    450.04807    6059.3437    16117.588 
  168900   -254660.22    91.152623   -254569.07    445.47529    6051.1015    16117.588 
  169000   -254659.62    91.062992   -254568.56    445.03725    6084.5467    16117.588 
  169100    -254657.5    93.193813    -254564.3    455.45086    6187.6289    16117.588 
  169200   -254655.41    91.861374   -254563.55    448.93905    6039.4158    16117.588 
  169300   -254658.57    92.083514   -254566.49    450.02468    6060.0831    16117.588 
  169400   -254662.12    93.238436   -254568.88    455.66894    6178.6289    16117.588 
  169500   -254660.03    91.341991   -254568.69    446.40075    6082.7956    16117.588 
  169600   -254657.93    91.381425   -254566.55    446.59347    6097.4792    16117.588 
  169700   -254656.69    92.195992    -254564.5    450.57437     6067.806    16117.588 
  169800   -254658.34    93.329292   -254565.01    456.11297    6179.5568    16117.588 
  169900   -254659.99    94.100826   -254565.89    459.88355    6217.4904    16117.588 
  170000   -254660.16    92.497227   -254567.66    452.04655    6086.3515    16117.588 
  170100   -254661.16    92.160599      -254569     450.4014    6093.0691    16117.588 
  170200   -254660.18    90.628273   -254569.55    442.91272     6004.201    16117.588 
  170300   -254660.46    91.591961   -254568.87    447.62239    6203.0331    16117.588 
  170400   -254661.71    92.790012   -254568.92    453.47743    6177.3802    16117.588 
  170500   -254658.51    88.498692   -254570.01    432.50516    5823.3661    16117.588 
  170600   -254660.53    92.126535   -254568.41    450.23493    6064.7064    16117.588 
  170700   -254657.61    92.023651   -254565.58    449.73212    6109.1833    16117.588 
  170800   -254657.16    94.712163   -254562.45    462.87125    6412.9819    16117.588 
  170900   -254656.94    94.464329   -254562.48    461.66004    6219.1475    16117.588 
  171000   -254658.02    93.351833   -254564.67    456.22313    6215.6651    16117.588 
  171100   -254658.68    92.780972   -254565.89    453.43325    6106.4038    16117.588 
  171200   -254656.64    90.938265    -254565.7    444.42769    6036.6328    16117.588 
  171300   -254657.31    92.401818   -254564.91    451.58028    6117.0706    16117.588 
  171400   -254661.28    94.677188    -254566.6    462.70032    6262.5277    16117.588 
  171500   -254659.09     88.69122    -254570.4    433.44608    5859.5712    16117.588 
  171600    -254660.1    89.083456   -254571.01    435.36299    5934.2891    16117.588 
  171700   -254659.03    91.161066   -254567.86    445.51655    6000.8746    16117.588 
  171800   -254655.43    89.780477   -254565.65    438.76942    5976.2866    16117.588 
  171900   -254657.59    92.713356   -254564.87     453.1028    6179.0091    16117.588 
  172000   -254657.11    91.344402   -254565.77    446.41254    6009.9153    16117.588 
  172100   -254662.17       93.391   -254568.78    456.41454    6148.9245    16117.588 
  172200   -254661.37    88.598647   -254572.78    432.99366    5830.9701    16117.588 
  172300   -254662.39    91.553946   -254570.84    447.43661    6067.0081    16117.588 
  172400   -254662.87      93.7303   -254569.14    458.07274    6172.2212    16117.588 
  172500   -254660.21    91.706153    -254568.5    448.18046    6036.6154    16117.588 
  172600   -254659.24    93.422505   -254565.82    456.56851    6151.2511    16117.588 
  172700   -254656.43     95.14417   -254561.28    464.98252    6260.6883    16117.588 
  172800   -254658.16    95.396427   -254562.76    466.21533    6281.0607    16117.588 
  172900   -254656.81     91.09783   -254565.72    445.20751    6083.4415    16117.588 
  173000   -254655.62    90.613533   -254565.01    442.84068    6003.5092    16117.588 
  173100   -254656.27    92.924977   -254563.34    454.13702    6118.3254    16117.588 
  173200   -254654.18    92.274303   -254561.91    450.95709    6115.0452    16117.588 
  173300   -254653.32    94.333869   -254558.98    461.02247    6212.4989    16117.588 
  173400    -254654.3    93.399421    -254560.9     456.4557    6191.9061    16117.588 
  173500   -254656.05    91.797784   -254564.25    448.62828    6076.0087    16117.588 
  173600   -254656.98    90.433014   -254566.55    441.95846    5952.4671    16117.588 
  173700   -254658.74    91.151719   -254567.58    445.47087    6043.6534    16117.588 
  173800    -254658.3    91.566111   -254566.74    447.49606    6087.9451    16117.588 
  173900   -254653.87    92.705109   -254561.16     453.0625    6102.1159    16117.588 
  174000   -254654.97    93.445294   -254561.53    456.67988    6219.5989    16117.588 
  174100    -254656.9    91.634139   -254565.27    447.82852      6083.06    16117.588 
  174200    -254657.9     90.83411   -254567.07    443.91867    6018.7923    16117.588 
  174300   -254660.22    91.998625   -254568.22    449.60982    6055.0093    16117.588 
  174400   -254660.43     91.20591   -254569.22    445.73571     6189.555    16117.588 
  174500   -254659.43    90.292945   -254569.13    441.27392      5939.32    16117.588 
  174600   -254662.31    96.441656   -254565.87    471.32351    6350.8184    16117.588 
  174700   -254660.32    95.218275    -254565.1    465.34468     6392.202    16117.588 
  174800    -254657.9    90.964124   -254566.93    444.55407    5986.9902    16117.588 
  174900   -254661.62    91.066017   -254570.55    445.05203     6079.754    16117.588 
  175000   -254662.19    89.755048   -254572.43    438.64515    5907.7316    16117.588 
  175100   -254660.03    90.939404   -254569.09    444.43326    5985.0157    16117.588 
  175200   -254660.92    93.787451   -254567.13    458.35205    6200.5809    16117.588 
  175300   -254658.59    91.038556   -254567.55    444.91783    6140.0751    16117.588 
  175400   -254660.47    92.711762   -254567.76    453.09501     6104.776    16117.588 
  175500   -254660.59    90.876798   -254569.71    444.12729    5983.3268    16117.588 
  175600      -254661    88.927389   -254572.08    434.60026    5887.2039    16117.588 
  175700   -254662.52    90.117489   -254572.41    440.41644    5963.2912    16117.588 
  175800   -254659.84    90.488481   -254569.35    442.22953    5957.1515    16117.588 
  175900   -254655.29     90.07441   -254565.21    440.20591    5975.4302    16117.588 
  176000   -254655.79    92.292739    -254563.5    451.04719    6199.4043    16117.588 
  176100   -254657.64    93.373168   -254564.27    456.32739    6240.7549    16117.588 
  176200   -254656.88    89.530577   -254567.35    437.54813    5893.3197    16117.588 
  176300   -254661.39    91.392036   -254569.99    446.64533    6089.7077    16117.588 
  176400   -254659.93    87.344899   -254572.58    426.86642    5836.6697    16117.588 
  176500   -254661.69    92.114283   -254569.57    450.17505    6164.1283    16117.588 
  176600   -254658.84    93.494453   -254565.34    456.92013    6179.4731    16117.588 
  176700   -254658.87    93.729759   -254565.14     458.0701    6170.8213    16117.588 
  176800   -254658.88    94.929221   -254563.95    463.93204    6358.0074    16117.588 
  176900   -254657.58    93.228552   -254564.35    455.62063    6181.5469    16117.588 
  177000   -254659.32     92.76524   -254566.55    453.35637    6107.0138    16117.588 
  177100      -254659    89.128857   -254569.87    435.58487    5901.5699    16117.588 
  177200   -254658.17    88.971892    -254569.2    434.81776    5908.0026    16117.588 
  177300   -254657.88    93.140809   -254564.74    455.19182    6181.7723    16117.588 
  177400   -254658.65    93.546213    -254565.1    457.17309    6266.5199    16117.588 
  177500   -254656.98     90.23959   -254566.74    441.01317    5941.0803    16117.588 
  177600   -254660.93    93.777566   -254567.15    458.30374    6177.2826    16117.588 
  177700   -254657.88    91.347561   -254566.54    446.42797    6014.5534    16117.588 
  177800   -254655.84    91.212725   -254564.63    445.76901    6006.4692    16117.588 
  177900   -254655.57    94.536779   -254561.03    462.01412    6227.3239    16117.588 
  178000   -254654.32    91.496957   -254562.83     447.1581    6095.6607    16117.588 
  178100   -254657.78    91.512677   -254566.27    447.23492    6023.8041    16117.588 
  178200   -254656.12    89.287125   -254566.83    436.35834    5952.0431    16117.588 
  178300   -254656.41    90.619738   -254565.79      442.871    6038.6581    16117.588 
  178400   -254658.25    92.637509   -254565.62    452.73213    6101.6909    16117.588 
  178500   -254660.34    92.962364   -254567.38    454.31974    6123.0486    16117.588 
  178600   -254659.82    89.617539    -254570.2    437.97312    5898.9412    16117.588 
  178700   -254660.53    87.942153   -254572.59    429.78528    5789.2335    16117.588 
  178800   -254659.58    89.249936   -254570.33     436.1766    5917.3304    16117.588 
  178900   -254655.42    89.472268   -254565.95    437.26316    6018.1604    16117.588 
  179000    -254658.2    93.083501   -254565.11    454.91175    6201.0819    16117.588 
  179100   -254660.86     92.90948   -254567.95    454.06129    6118.1696    16117.588 
  179200   -254660.71    91.370726   -254569.34    446.54119    6017.8455    16117.588 
  179300   -254657.33    91.139905   -254566.19    445.41313    6074.4661    16117.588 
  179400   -254654.39    92.443122   -254561.94    451.78213    6085.9631    16117.588 
  179500   -254656.21    93.031894   -254563.18    454.65954    6127.2527    16117.588 
  179600   -254660.19    93.359236   -254566.83    456.25931    6176.7894    16117.588 
  179700   -254662.14     93.40602   -254568.74    456.48794    6152.7867    16117.588 
  179800   -254660.32    92.826781    -254567.5    453.65713    6113.3956    16117.588 
  179900   -254656.25    91.102072   -254565.15    445.22824    6025.7224    16117.588 
  180000   -254655.75    95.523165   -254560.23    466.83472    6290.8277    16117.588 
  180100   -254657.84    94.486151   -254563.35    461.76669    6222.7428    16117.588 
  180200   -254655.86    89.877273   -254565.98    439.24248    5940.9689    16117.588 
  180300   -254656.28    89.907531   -254566.37    439.39035    5949.4758    16117.588 
  180400   -254656.12    89.651739   -254566.47    438.14026    5926.0834    16117.588 
  180500   -254656.64    94.787662   -254561.85    463.24022    6241.9924    16117.588 
  180600   -254655.89    94.776816   -254561.11    463.18721    6395.3805    16117.588 
  180700   -254656.02    91.750657   -254564.27    448.39796    6041.6158    16117.588 
  180800   -254656.14    89.833202    -254566.3     439.0271    5915.8842    16117.588 
  180900   -254657.49     91.70121   -254565.79    448.15631    6039.3403    16117.588 
  181000   -254655.48    91.506806   -254563.97    447.20623    6027.3809    16117.588 
  181100   -254654.77    92.799376   -254561.97     453.5232    6113.0872    16117.588 
  181200   -254650.22    92.716723   -254557.51    453.11926    6103.1859    16117.588 
  181300   -254655.39    97.184777   -254558.21    474.95525    6511.1968    16117.588 
  181400   -254656.59     93.62856   -254562.96    457.57553    6227.9013    16117.588 
  181500   -254657.74       92.524   -254565.21    452.17739    6091.3429    16117.588 
  181600   -254658.48    91.801506   -254566.68    448.64647    6043.4987    16117.588 
  181700   -254657.03    90.600111   -254566.43    442.77509    5962.7669    16117.588 
  181800    -254656.4    93.934523   -254562.46    459.07081    6210.5409    16117.588 
  181900   -254654.09    93.151805   -254560.94    455.24556    6130.7222    16117.588 
  182000   -254655.33     94.32796      -254561    460.99359    6209.9956    16117.588 
  182100   -254657.38    91.547551   -254565.83    447.40535    6026.4645    16117.588 
  182200   -254657.04    90.502397   -254566.54    442.29754    5955.0242    16117.588 
  182300   -254658.09    92.494505    -254565.6    452.03325    6087.4802    16117.588 
  182400   -254657.15    92.918894   -254564.23     454.1073    6148.7767    16117.588 
  182500   -254657.06    93.640255   -254563.42    457.63268    6163.1393    16117.588 
  182600   -254654.66    88.872225   -254565.78    434.33067    5878.8296    16117.588 
  182700   -254660.52    91.900435   -254568.62    449.12995    6049.1917    16117.588 
  182800   -254657.38    87.515269   -254569.87    427.69904     5758.951    16117.588 
  182900   -254658.44    93.264369   -254565.18    455.79568    6187.8363    16117.588 
  183000   -254658.02    95.030464   -254562.99    464.42682    6257.3025    16117.588 
  183100   -254658.56     93.35628    -254565.2    456.24486    6147.5755    16117.588 
  183200   -254657.79    90.518581   -254567.27    442.37664    5958.5566    16117.588 
  183300   -254659.71    91.939042   -254567.77    449.31862    6099.7132    16117.588 
  183400   -254662.29    90.902028   -254571.39    444.25059    5984.6364    16117.588 
  183500   -254664.14    90.148187      -254574    440.56647      5935.47    16117.588 
  183600   -254662.98     91.61113   -254571.37    447.71608    6031.4245    16117.588 
  183700   -254660.66    91.554669   -254569.11    447.44014    6057.4637    16117.588 
  183800   -254660.06    92.136508   -254567.92    450.28367    6108.1545    16117.588 
  183900   -254657.26    91.212659   -254566.05    445.76869    6123.0904    16117.588 
  184000   -254661.01    95.653887   -254565.35    467.47358    6297.6573    16117.588 
  184100   -254659.29    88.717753   -254570.58    433.57575    5911.6113    16117.588 
  184200   -254659.61    88.487833   -254571.12     432.4521     5825.141    16117.588 
  184300   -254659.43    91.938286   -254567.49    449.31493    6078.5921    16117.588 
  184400   -254657.69     91.69717      -254566    448.13656    6037.8774    16117.588 
  184500   -254656.67    91.618156   -254565.06    447.75041    6121.9426    16117.588 
  184600   -254657.88    91.385679   -254566.49    446.61426     6016.005    16117.588 
  184700   -254659.82    90.368206   -254569.45    441.64174    5950.6635    16117.588 
  184800   -254659.52    89.705146   -254569.81    438.40127    5905.2947    16117.588 
  184900   -254659.95    94.807006   -254565.14    463.33475    6275.8728    16117.588 
  185000   -254657.99    93.956704   -254564.03    459.17921    6185.0231    16117.588 
  185100   -254655.86    91.004491   -254564.85    444.75135    5990.6236    16117.588 
  185200   -254657.74    91.421769   -254566.32    446.79064    6082.8305    16117.588 
  185300   -254658.47    88.867024    -254569.6    434.30525    5851.1497    16117.588 
  185400    -254661.1    90.522749   -254570.57    442.39701    5960.4646    16117.588 
  185500   -254658.81    92.451731   -254566.36     451.8242    6088.0152    16117.588 
  185600   -254656.44     91.93123   -254564.51    449.28045    6045.6173    16117.588 
  185700   -254659.52     94.50947   -254565.01    461.88066    6438.3987    16117.588 
  185800   -254656.77    89.520925   -254567.25    437.50095    5892.5433    16117.588 
  185900   -254659.69    92.667687   -254567.02    452.87961    6098.5748    16117.588 
  186000    -254660.7    93.637856   -254567.06    457.62096    6165.8882    16117.588 
  186100   -254658.95    91.698959   -254567.25    448.14531    6030.9814    16117.588 
  186200    -254660.5    91.769323   -254568.73    448.48918    6042.5014    16117.588 
  186300   -254661.54     89.72961   -254571.81    438.52083    5971.6038    16117.588 
  186400   -254661.44    89.771099   -254571.67    438.72359    5911.0442    16117.588 
  186500   -254660.25    93.091154   -254567.16    454.94915    6166.0613    16117.588 
  186600   -254656.82    91.406994   -254565.41    446.71843    6018.6372    16117.588 
  186700   -254655.43    90.220918   -254565.21    440.92192    5978.0423    16117.588 
  186800   -254657.84    91.898813   -254565.95    449.12202    6147.0694    16117.588 
  186900   -254657.93    88.955465   -254568.98    434.73748    5899.1549    16117.588 
  187000   -254658.41    88.879847   -254569.53    434.36792    5885.2814    16117.588 
  187100   -254657.84    92.956685   -254564.88    454.29198    6123.3778    16117.588 
  187200   -254656.85    92.969521   -254563.88    454.35471    6124.4086    16117.588 
  187300   -254658.99    94.306062   -254564.69    460.88657    6211.3972    16117.588 
  187400   -254658.75    91.420616   -254567.33    446.78501    6087.7918    16117.588 
  187500   -254663.08    91.313327   -254571.77    446.26067     6013.265    16117.588 
  187600   -254661.99    89.616369   -254572.37     437.9674    5901.9885    16117.588 
  187700   -254660.39    90.059163   -254570.33     440.1314    6042.9285    16117.588 
  187800   -254659.13    92.084541   -254567.04     450.0297    6148.3875    16117.588 
  187900   -254657.95    92.404338   -254565.54    451.59259    6084.7914    16117.588 
  188000   -254658.33    93.411509   -254564.92    456.51477    6152.1829    16117.588 
  188100   -254657.97    91.249898   -254566.72    445.95068    6123.7842    16117.588 
  188200   -254661.93    91.820213   -254570.11    448.73789    6045.8573    16117.588 
  188300   -254661.06    89.529928   -254571.53    437.54496    5975.6221    16117.588 
  188400   -254660.48    92.126975   -254568.35    450.23708    6134.2271    16117.588 
  188500   -254661.31    96.913532    -254564.4    473.62963    6411.3969    16117.588 
  188600   -254657.68    92.209488   -254565.47    450.64033    6070.4382    16117.588 
  188700   -254657.83    90.574403   -254567.26    442.64945    6038.1379    16117.588 
  188800   -254657.88    90.671214   -254567.21    443.12258    6042.8741    16117.588 
  188900   -254659.16    94.088411   -254565.07    459.82288     6196.075    16117.588 
  189000   -254657.45    95.303196   -254562.15     465.7597    6278.0102    16117.588 
  189100   -254659.34    93.714996   -254565.62    457.99795     6172.692    16117.588 
  189200   -254657.05    88.216625   -254568.83    431.12666    5857.1323    16117.588 
  189300   -254657.81    90.397817   -254567.42    441.78645    5953.9198    16117.588 
  189400   -254658.26    93.941703   -254564.32     459.1059    6290.2741    16117.588 
  189500    -254654.5    89.965535   -254564.53    439.67383    6089.1947    16117.588 
  189600   -254656.79    88.107136   -254568.68    430.59158    5854.3694    16117.588 
  189700    -254658.3    87.543275   -254570.76    427.83591    5763.9622    16117.588 
  189800   -254661.22    92.718264    -254568.5    453.12679    6107.4912    16117.588 
  189900   -254659.37    92.887294   -254566.48    453.95286    6200.5591    16117.588 
  190000   -254660.95    94.196558   -254566.75    460.35141    6268.1922    16117.588 
  190100   -254661.84      91.8465   -254569.99    448.86636    6073.6838    16117.588 
  190200   -254660.25    90.028997   -254570.22    439.98397    5928.5504    16117.588 
  190300   -254660.26    94.166695    -254566.1    460.20547    6282.6921    16117.588 
  190400   -254656.59    91.640971   -254564.95    447.86191    6096.7478    16117.588 
  190500   -254656.69    91.570293   -254565.12     447.5165    6030.8433    16117.588 
  190600   -254655.97    92.395368   -254563.58    451.54875    6084.0063    16117.588 
  190700   -254655.66     92.41969   -254563.24    451.66762    6086.3557    16117.588 
  190800   -254655.79    90.686205    -254565.1    443.19584    6006.2651    16117.588 
  190900   -254661.63    92.821819   -254568.81    453.63288    6233.0492    16117.588 
  191000   -254662.69    92.871977   -254569.82      453.878    6167.8347    16117.588 
  191100    -254660.4    92.641636   -254567.76     452.7523    6164.3064    16117.588 
  191200   -254656.62    92.421628    -254564.2    451.67709    6086.1667    16117.588 
  191300   -254657.03     95.14862   -254561.88    465.00427     6289.112    16117.588 
  191400   -254657.25    92.425333   -254564.83     451.6952    6087.5375    16117.588 
  191500   -254658.22    88.410229   -254569.81    432.07284    5898.3456    16117.588 
  191600   -254658.53    89.777255   -254568.75    438.75368    5908.8051    16117.588 
  191700   -254656.64    90.847956   -254565.79    443.98634    6047.6409    16117.588 
  191800    -254657.6    94.238015   -254563.36    460.55402    6261.9511    16117.588 
  191900   -254655.17    91.806457   -254563.36    448.67066    6148.2575    16117.588 
  192000   -254657.54    94.896054   -254562.64    463.76994    6293.0654    16117.588 
  192100   -254659.06    94.230188   -254564.83    460.51576    6230.7582    16117.588 
  192200   -254658.55    90.312285   -254568.24    441.36844    5947.0497    16117.588 
  192300   -254659.97     91.56327   -254568.41    447.48217    6054.1168    16117.588 
  192400   -254658.09    92.055699   -254566.03    449.88875    6061.2347    16117.588 
  192500   -254661.01    97.841454   -254563.16    478.16452    6446.6061    16117.588 
  192600   -254661.15    95.695274   -254565.45    467.67584    6339.1119    16117.588 
  192700   -254662.57    92.686955   -254569.88    452.97378    6103.8934    16117.588 
  192800   -254663.23    92.980721   -254570.25    454.40945    6123.8612    16117.588 
  192900   -254661.19    91.683819    -254569.5    448.07131     6104.302    16117.588 
  193000   -254655.43    89.918153   -254565.51    439.44226    5921.1942    16117.588 
  193100   -254659.77    96.922265   -254562.85    473.67232      6383.28    16117.588 
  193200   -254657.31    91.941063   -254565.37     449.3285    6054.7373    16117.588 
  193300   -254657.65    90.031831   -254567.62    439.99782    5926.9408    16117.588 
  193400   -254656.91    88.912475      -254568    434.52738    5932.2779    16117.588 
  193500   -254657.75     91.41665   -254566.33    446.76562    6044.3053    16117.588 
  193600    -254655.1    94.778446   -254560.32    463.19518     6335.882    16117.588 
  193700    -254657.4    96.668968   -254560.73    472.43442    6367.0526    16117.588 
  193800   -254656.17    91.202438   -254564.97    445.71874    6002.9428    16117.588 
  193900    -254656.9    90.741268   -254566.16    443.46494    5974.6624    16117.588 
  194000   -254658.89    92.091469    -254566.8    450.06355    6061.7125    16117.588 
  194100   -254662.68    92.628454   -254570.05    452.68787     6098.451    16117.588 
  194200   -254660.09     88.18618   -254571.91    430.97788     5844.271    16117.588 
  194300   -254659.46    89.585178   -254569.88    437.81497     5953.786    16117.588 
  194400   -254661.17    92.925747   -254568.24    454.14079    6119.1927    16117.588 
  194500   -254663.01    95.549231   -254567.46    466.96211    6318.5361    16117.588 
  194600   -254661.18    91.703896   -254569.47    448.16944    6069.0717    16117.588 
  194700    -254663.5    90.450029   -254573.05    442.04162    6018.8241    16117.588 
  194800   -254661.78    89.437598   -254572.34    437.09373    5963.6565    16117.588 
  194900   -254660.66    94.077351   -254566.58    459.76883     6253.223    16117.588 
  195000   -254661.67    94.459162   -254567.21    461.63479    6222.4566    16117.588 
  195100   -254661.58    92.525411   -254569.05    452.18429    6134.1025    16117.588 
  195200   -254662.26    90.412882   -254571.85    441.86007    5951.5994    16117.588 
  195300   -254663.13    91.138429   -254571.99    445.40592    6048.6237    16117.588 
  195400   -254660.76    94.407705   -254566.35    461.38332    6216.8713    16117.588 
  195500   -254658.41    93.840509   -254564.57    458.61135      6177.69    16117.588 
  195600   -254657.78    92.680577    -254565.1    452.94261    6102.0599    16117.588 
  195700   -254658.54    91.885294   -254566.65    449.05595    6102.1022    16117.588 
  195800    -254659.6    92.640501   -254566.96    452.74675    6100.7954    16117.588 
  195900   -254658.96    93.881633   -254565.08    458.81233    6182.7556    16117.588 
  196000   -254657.67    93.282116   -254564.39    455.88241    6322.8393    16117.588 
  196100   -254657.42    91.522258    -254565.9    447.28175     6024.866    16117.588 
  196200   -254659.15    90.662764   -254568.49    443.08128    5968.7814    16117.588 
  196300   -254658.82    91.506187   -254567.32     447.2032    6025.2459    16117.588 
  196400   -254654.14    92.108176   -254562.03     450.1452    6142.1248    16117.588 
  196500   -254656.18    94.276854   -254561.91    460.74383    6332.9519    16117.588 
  196600   -254656.82    91.761563   -254565.05    448.45126    6041.6672    16117.588 
  196700   -254658.24    90.604637   -254567.64    442.79721    5965.1758    16117.588 
  196800   -254658.96    91.069473   -254567.89    445.06892    5996.8429    16117.588 
  196900   -254659.86    93.270757   -254566.59     455.8269    6182.2477    16117.588 
  197000   -254655.95    89.987439   -254565.96    439.78087     5973.983    16117.588 
  197100   -254661.31    95.108268    -254566.2    464.80706    6314.4229    16117.588 
  197200    -254660.8      92.8622   -254567.94    453.83022    6114.8588    16117.588 
  197300    -254657.4    89.628037   -254567.78    438.02443    5899.9671    16117.588 
  197400   -254656.02     90.90283   -254565.12    444.25452    5983.9756    16117.588 
  197500   -254656.04    93.137723    -254562.9    455.17674    6188.3326    16117.588 
  197600   -254657.05    92.785482   -254564.27    453.45529    6109.4101    16117.588 
  197700   -254656.74    88.939639    -254567.8    434.66014    5926.1343    16117.588 
  197800   -254658.67    90.570461    -254568.1    442.63018    5987.1769    16117.588 
  197900   -254658.66    92.932578   -254565.73    454.17417    6116.5197    16117.588 
  198000   -254657.98     95.99472   -254561.98    469.13927    6319.3908    16117.588 
  198100   -254656.92    94.216197    -254562.7    460.44739    6201.9476    16117.588 
  198200   -254656.97    91.476075    -254565.5    447.05604    6053.8089    16117.588 
  198300   -254660.09    92.659301   -254567.43    452.83863    6249.4205    16117.588 
  198400   -254658.28    92.061241   -254566.22    449.91583    6059.5064    16117.588 
  198500   -254660.99     98.19073   -254562.79    479.87148    6533.8438    16117.588 
  198600   -254657.63    95.955374   -254561.67    468.94699    6319.0489    16117.588 
  198700   -254659.97    92.541158   -254567.43    452.26125    6129.3967    16117.588 
  198800   -254663.27    93.763894    -254569.5    458.23692    6174.1414    16117.588 
  198900   -254662.14    90.670771   -254571.47    443.12041    6001.3953    16117.588 
  199000   -254663.54    91.004621   -254572.53    444.75198    5989.7756    16117.588 
  199100   -254661.91    90.460021   -254571.45    442.09045    5979.7644    16117.588 
  199200   -254658.98    91.693679   -254567.29     448.1195    6215.0563    16117.588 
  199300   -254661.12    95.193662   -254565.93     465.2244    6267.5062    16117.588 
  199400   -254657.64    90.575722   -254567.07     442.6559    5995.5243    16117.588 
  199500   -254658.53    90.495805   -254568.03    442.26533    5955.4306    16117.588 
  199600   -254657.91    93.079966   -254564.83    454.89448    6128.5907    16117.588 
  199700   -254655.33    94.392961   -254560.93    461.31126     6212.982    16117.588 
  199800   -254655.87    93.181047   -254562.69    455.38847    6160.0502    16117.588 
  199900    -254658.9    92.243377   -254566.66    450.80595    6071.2306    16117.588 
  200000   -254657.51    89.107978    -254568.4    435.48283    5864.3688    16117.588 
  200100   -254660.03    93.253518   -254566.77    455.74265    6175.5307    16117.588 
  200200   -254656.12    93.018628    -254563.1    454.59471    6221.5328    16117.588 
  200300   -254658.03    96.092456   -254561.94    469.61692     6327.696    16117.588 
  200400   -254656.75    93.373018   -254563.37    456.32666    6298.1528    16117.588 
  200500   -254654.79    89.819005   -254564.97    438.95771     5945.661    16117.588 
  200600    -254657.2    90.828293   -254566.37    443.89024    6015.9481    16117.588 
  200700   -254659.71    93.491591   -254566.22    456.90614     6193.605    16117.588 
  200800   -254659.44     90.25374   -254569.19    441.08232    6117.4733    16117.588 
  200900    -254662.2    90.499799    -254571.7    442.28485    5958.7101    16117.588 
  201000      -254661    91.538022   -254569.46    447.35879    6026.7891    16117.588 
  201100   -254659.41    94.363585   -254565.04     461.1677     6210.678    16117.588 
  201200   -254656.93    91.867754   -254565.06    448.97023    6047.1859    16117.588 
  201300   -254658.32    91.403071   -254566.92    446.69926    6009.7235    16117.588 
  201400   -254656.76     88.30264   -254568.46    431.54703    5812.6154    16117.588 
  201500   -254656.58    93.033778   -254563.55    454.66875    6125.7743    16117.588 
  201600   -254656.09    94.124406   -254561.97    459.99879    6197.9792    16117.588 
  201700   -254655.23    93.753277   -254561.48    458.18504    6173.9611    16117.588 
  201800   -254654.09    90.366194   -254563.73     441.6319    5944.3235    16117.588 
  201900   -254657.76    90.731277   -254567.03    443.41611    6023.5252    16117.588 
  202000   -254660.69    90.499345   -254570.19    442.28263    6024.0414    16117.588 
  202100    -254661.6    92.158848   -254569.44    450.39285    6067.1117    16117.588 
  202200   -254656.68    93.315352   -254563.36    456.04484    6227.0333    16117.588 
  202300   -254656.76    93.726814   -254563.03    458.05571    6200.7789    16117.588 
  202400   -254656.55    91.161296   -254565.39    445.51767    5999.6523    16117.588 
  202500   -254659.52    92.460444   -254567.06    451.86679     6084.847    16117.588 
  202600   -254658.15    92.387162   -254565.77    451.50865    6122.0316    16117.588 
  202700   -254654.87    93.933167   -254560.94    459.06418     6227.095    16117.588 
  202800   -254656.48    94.434302   -254562.05     461.5133    6324.4258    16117.588 
  202900   -254658.88    93.451726   -254565.43    456.71132    6145.7497    16117.588 
  203000   -254661.97     94.10964   -254567.86    459.92663    6212.0621    16117.588 
  203100   -254661.98    92.964145   -254569.01    454.32844    6162.0092    16117.588 
  203200   -254660.76    90.255482   -254570.51    441.09084    5937.2149    16117.588 
  203300   -254657.83    90.623723    -254567.2    442.89048    5963.6706    16117.588 
  203400   -254656.75    93.092733   -254563.66    454.95687      6190.87    16117.588 
  203500   -254655.75    92.428612   -254563.33    451.71122    6076.8126    16117.588 
  203600   -254655.05     89.95176    -254565.1    439.60651     5948.359    16117.588 
  203700   -254657.87    90.399873   -254567.47     441.7965    5948.0969    16117.588 
  203800   -254663.58    92.211067   -254571.37    450.64805    6069.7473    16117.588 
  203900   -254659.67    88.630253   -254571.04    433.14812    5857.3021    16117.588 
  204000   -254656.03    89.040554   -254566.99    435.15332    5931.6033    16117.588 
  204100   -254655.73    90.147248   -254565.58    440.56188    5931.6285    16117.588 
  204200    -254654.7    90.050656   -254564.65    440.08982     5985.111    16117.588 
  204300   -254654.33    90.687696   -254563.64    443.20312    5966.8087    16117.588 
  204400   -254654.37    94.474125    -254559.9    461.70792    6215.2683    16117.588 
  204500    -254652.7    92.781922   -254559.92     453.4379    6226.3545    16117.588 
  204600   -254658.09    91.748259   -254566.34    448.38624    6246.5299    16117.588 
  204700   -254659.43    91.552517   -254567.87    447.42962    6074.5171    16117.588 
  204800   -254658.76    91.010907   -254567.74     444.7827    5989.4021    16117.588 
  204900   -254655.67    89.525742   -254566.14     437.5245    5886.5409    16117.588 
  205000   -254655.68     93.65648   -254562.02    457.71198      6164.02    16117.588 
  205100   -254658.23     96.67357   -254561.56    472.45691    6363.4993    16117.588 
  205200   -254656.13    91.172115   -254564.96    445.57055    5998.9685    16117.588 
  205300   -254660.23    93.674607   -254566.56    457.80057    6162.9215    16117.588 
  205400   -254661.45     92.05739   -254569.39    449.89701    6057.1223    16117.588 
  205500   -254662.31    91.724527   -254570.58    448.27026    6138.2514    16117.588 
  205600   -254660.25    91.766196   -254568.49     448.4739    6039.8617    16117.588 
  205700   -254658.86    94.834562   -254564.03    463.46943    6280.5809    16117.588 
  205800   -254660.66    95.359909    -254565.3    466.03687    6280.0387    16117.588 
  205900   -254659.17    91.040748   -254568.13    444.92854    6147.3658    16117.588 
  206000   -254659.49    91.323267   -254568.16    446.30925    6012.0342    16117.588 
  206100   -254660.78     93.13798   -254567.64      455.178    6175.0176    16117.588 
  206200    -254655.9    89.718395   -254566.18    438.46602    5943.7484    16117.588 
  206300   -254655.14    95.444732    -254559.7    466.45141    6405.3853    16117.588 
  206400   -254655.48    93.977499    -254561.5    459.28084    6188.0539    16117.588 
  206500    -254657.9    92.541322   -254565.36    452.26205    6093.4165    16117.588 
  206600   -254660.16    93.009971   -254567.15     454.5524    6125.1105    16117.588 
  206700   -254659.27    89.748281   -254569.52    438.61208    5943.0107    16117.588 
  206800   -254662.42    92.505655   -254569.91    452.08774    6090.9141    16117.588 
  206900   -254659.91    94.918074   -254564.99    463.87756    6250.6738    16117.588 
  207000   -254655.32    91.996348   -254563.32    449.59869      6050.87    16117.588 
  207100   -254657.61    92.433057   -254565.18    451.73294    6084.0151    16117.588 
  207200   -254658.57    91.470942   -254567.09    447.03095    6053.8157    16117.588 
  207300   -254658.28    88.450606   -254569.83    432.27016    5820.5238    16117.588 
  207400   -254662.49    91.689953    -254570.8    448.10129    6034.4516    16117.588 
  207500   -254661.52    90.869863   -254570.65     444.0934    5981.4581    16117.588 
  207600   -254658.65     91.72517   -254566.93     448.2734    6038.9839    16117.588 
  207700   -254660.65    96.542831   -254564.11    471.81797    6380.6672    16117.588 
  207800   -254660.01    93.845925   -254566.16    458.63782    6221.3048    16117.588 
  207900      -254660    90.478418   -254569.52    442.18036    6000.0578    16117.588 
  208000   -254664.02    94.052448   -254569.97    459.64713    6190.2094    16117.588 
  208100   -254660.36    91.211574   -254569.14    445.76339    6024.6507    16117.588 
  208200   -254660.91     94.10397   -254566.81    459.89892    6246.3093    16117.588 
  208300   -254658.51    93.809121   -254564.71    458.45795    6207.1598    16117.588 
  208400   -254655.37    92.928152   -254562.44    454.15254    6114.6727    16117.588 
  208500   -254655.62    93.819902    -254561.8    458.51064    6204.3928    16117.588 
  208600   -254661.01    94.912442    -254566.1    463.85004    6248.3321    16117.588 
  208700   -254659.69    90.714811   -254568.97    443.33564    6032.9575    16117.588 
  208800   -254659.84    91.627959   -254568.21    447.79832     6030.182    16117.588 
  208900   -254657.85    92.157222    -254565.7     450.3849    6065.3835    16117.588 
  209000   -254658.83    94.219288   -254564.61     460.4625    6240.0265    16117.588 
  209100    -254662.4    94.259953   -254568.14    460.66123    6204.6776    16117.588 
  209200   -254661.09    89.429684   -254571.66    437.05505    5883.8325    16117.588 
  209300   -254658.64     89.21994   -254569.42       436.03    5949.7918    16117.588 
  209400   -254659.41    93.367711   -254566.04    456.30073    6145.3399    16117.588 
  209500   -254657.66    92.510065   -254565.15    452.10929    6088.0603    16117.588 
  209600   -254657.01    91.206034    -254565.8    445.73631    6002.3358    16117.588 
  209700   -254657.62    91.097672   -254566.52    445.20674    6132.5127    16117.588 
  209800   -254659.06    93.634833   -254565.43    457.60619    6220.0547    16117.588 
  209900   -254658.24    95.269727   -254562.97    465.59613    6298.3732    16117.588 
  210000   -254657.32    93.204182   -254564.12    455.50153     6174.717    16117.588 
  210100   -254659.28    91.786348   -254567.49    448.57239    6065.4381    16117.588 
  210200   -254661.43    92.488813   -254568.94    452.00543    6087.5103    16117.588 
  210300   -254660.79    94.032464   -254566.76    459.54946    6188.7764    16117.588 
  210400    -254658.7    92.010577   -254566.69    449.66822     6100.048    16117.588 
  210500   -254658.65    92.188254   -254566.46    450.53655    6067.6456    16117.588 
  210600    -254657.1    90.993596    -254566.1     444.6981    5988.1209    16117.588 
  210700   -254659.24    93.677936   -254565.56    457.81683    6220.9793    16117.588 
  210800   -254657.81     91.12689   -254566.69    445.34953    6041.4514    16117.588 
  210900   -254661.79    90.045393   -254571.75     440.0641    5926.0116    16117.588 
  211000   -254661.27    88.473587   -254572.79    432.38247    5816.6024    16117.588 
  211100   -254660.58    92.308261   -254568.27    451.12305    6074.3705    16117.588 
  211200   -254661.16    94.664806   -254566.49     462.6398    6232.3315    16117.588 
  211300   -254661.43    94.221375   -254567.21     460.4727    6279.4311    16117.588 
  211400   -254664.28    93.224887   -254571.05    455.60272    6135.0946    16117.588 
  211500   -254663.76    89.751038   -254574.01    438.62555     5895.535    16117.588 
  211600   -254662.11    89.119601   -254572.99    435.53963     5891.484    16117.588 
  211700   -254658.33    88.224536   -254570.11    431.16533    5801.4805    16117.588 
  211800   -254659.13    91.202577   -254567.92    445.71942    6035.9914    16117.588 
  211900   -254657.34    90.950594   -254566.39    444.48795    5982.9947    16117.588 
  212000   -254660.37    95.006998   -254565.37    464.31214    6250.7609    16117.588 
  212100   -254659.89    93.997198   -254565.89    459.37711     6211.122    16117.588 
  212200   -254659.95    89.688646   -254570.26    438.32063    5898.2661    16117.588 
  212300   -254661.39    90.207979   -254571.18    440.85869    5956.9487    16117.588 
  212400   -254659.41     92.02381   -254567.38     449.7329    6049.8776    16117.588 
  212500   -254657.74    92.661801   -254565.08    452.85085    6091.4645    16117.588 
  212600    -254657.3    92.339832   -254564.96    451.27734    6141.7515    16117.588 
  212700   -254658.36    92.858852    -254565.5    453.81386    6101.7591    16117.588 
  212800   -254661.34    91.406193   -254569.94    446.71452    6006.5942    16117.588 
  212900   -254664.73    91.523155    -254573.2    447.28613    6061.1093    16117.588 
  213000   -254662.96    91.792014   -254571.17    448.60008    6035.5297    16117.588 
  213100   -254660.08    92.404928   -254567.68    451.59547    6130.3835    16117.588 
  213200   -254658.65    92.757082    -254565.9     453.3165    6119.4842    16117.588 
  213300   -254656.98    91.737956   -254565.24    448.33589    6031.3469    16117.588 
  213400   -254657.24    94.598896   -254562.64     462.3177    6272.4621    16117.588 
  213500   -254654.21    95.783653   -254558.42    468.10776    6301.1279    16117.588 
  213600   -254655.45     92.77858   -254562.67    453.42156    6251.3579    16117.588 
  213700   -254659.29    93.946279   -254565.34    459.12827    6200.0093    16117.588 
  213800   -254657.46     90.40781   -254567.05    441.83529    6032.1104    16117.588 
  213900   -254660.81    92.000758   -254568.81    449.62024    6082.6215    16117.588 
  214000   -254658.78    88.830831   -254569.95    434.12838    5884.6366    16117.588 
  214100   -254658.32     91.47136   -254566.85      447.033    6017.9801    16117.588 
  214200   -254655.83     92.72531   -254563.11    453.16122    6116.3275    16117.588 
  214300   -254654.84    92.280569   -254562.56    450.98771    6105.3615    16117.588 
  214400    -254654.5    90.597016   -254563.91    442.75996    5953.5151    16117.588 
  214500   -254658.02    89.028989   -254568.99     435.0968    5853.8715    16117.588 
  214600   -254661.84    91.040006    -254570.8    444.92491    5987.0974    16117.588 
  214700   -254662.82     93.25287   -254569.57    455.73948    6196.9783    16117.588 
  214800   -254661.38    93.484123    -254567.9    456.86965    6141.3205    16117.588 
  214900   -254658.41    91.295874   -254567.11    446.17537    6003.4227    16117.588 
  215000   -254659.42    92.153241   -254567.27    450.36544    6060.3664    16117.588 
  215100   -254658.97    90.010573   -254568.96    439.89393    5917.6211    16117.588 
  215200   -254661.98     91.85202   -254570.13    448.89333    6080.9268    16117.588 
  215300   -254660.62    91.792195   -254568.83    448.60096    6061.9338    16117.588 
  215400   -254658.24    92.731559   -254565.51    453.19176    6125.2017    16117.588 
  215500   -254656.93    92.736152   -254564.19    453.21421    6100.7927    16117.588 
  215600   -254656.76     92.63816   -254564.12    452.73531    6131.3886    16117.588 
  215700   -254656.55    93.751639   -254562.79    458.17703    6188.3026    16117.588 
  215800   -254655.86    93.113188   -254562.75    455.05683    6171.0383    16117.588 
  215900   -254655.64    90.904574   -254564.73    444.26304    6045.9102    16117.588 
  216000   -254655.29    89.451763   -254565.84    437.16295    5884.8141    16117.588 
  216100   -254658.36     91.27975   -254567.08    446.09658    6157.7316    16117.588 
  216200   -254657.89    90.227417   -254567.67    440.95368    5931.6441    16117.588 
  216300   -254659.49    92.961004   -254566.53    454.31309    6113.9616    16117.588 
  216400   -254658.61     92.63858   -254565.97    452.73736    6129.6877    16117.588 
  216500   -254658.59    93.837954   -254564.76    458.59887    6211.9916    16117.588 
  216600   -254657.77    94.829726   -254562.94    463.44579    6241.8994    16117.588 
  216700   -254656.89    92.480213   -254564.41     451.9634    6187.7399    16117.588 
  216800   -254660.17     91.06736    -254569.1     445.0586     6017.286    16117.588 
  216900   -254660.81    91.459734   -254569.35    446.97618    6044.6471    16117.588 
  217000   -254659.99    92.180129   -254567.81    450.49685     6151.567    16117.588 
  217100   -254659.21    93.288379   -254565.92    455.91302    6258.9923    16117.588 
  217200   -254655.06    93.515796   -254561.54    457.02444    6153.0319    16117.588 
  217300   -254656.45    97.853554   -254558.59    478.22365    6438.4985    16117.588 
  217400   -254656.15    93.511044   -254562.64    457.00121    6154.8117    16117.588 
  217500   -254657.56    92.644091   -254564.91     452.7643    6097.7174    16117.588 
  217600   -254658.44    91.646015    -254566.8    447.88656    6060.9779    16117.588 
  217700   -254659.54    91.895806   -254567.65    449.10732    6045.5228    16117.588 
  217800   -254657.06    93.584693   -254563.47    457.36115    6157.6842    16117.588 
  217900   -254655.69    95.549936   -254560.14    466.96555    6288.7721    16117.588 
  218000   -254654.98    93.711045   -254561.27    457.97864    6190.8639    16117.588 
  218100   -254655.81    91.478075   -254564.33    447.06582    6020.0094    16117.588 
  218200   -254658.41    93.095874   -254565.32    454.97222    6125.4239    16117.588 
  218300   -254659.06    92.499609   -254566.56    452.05819    6112.0607    16117.588 
  218400   -254659.73      90.8804   -254568.85     444.1449    5977.0402    16117.588 
  218500   -254662.94    89.162269   -254573.78    435.74816    5866.9168    16117.588 
  218600    -254660.6    88.929779   -254571.67    434.61194    5880.1035    16117.588 
  218700   -254657.12    89.204172   -254567.92    435.95294    5867.3714    16117.588 
  218800   -254658.95    93.808617   -254565.14    458.45549     6171.222    16117.588 
  218900   -254656.71    92.042508   -254564.67    449.82428    6056.4325    16117.588 
  219000   -254658.32    92.783286   -254565.54    453.44456    6162.0404    16117.588 
  219100   -254660.41    90.182236   -254570.23    440.73287    6022.5359    16117.588 
  219200   -254662.29    90.234642   -254572.05    440.98899    5977.9073    16117.588 
  219300   -254658.48    89.422644   -254569.05    437.02065    6035.3018    16117.588 
  219400   -254659.92    93.298609   -254566.62    455.96301    6175.8343    16117.588 
  219500    -254657.4    90.359009   -254567.05    441.59679    5946.4718    16117.588 
  219600   -254656.92    91.224118   -254565.69    445.82469    6062.9363    16117.588 
  219700   -254654.99    92.011686   -254562.98    449.67365    6055.6302    16117.588 
  219800   -254656.42    95.398417   -254561.02    466.22506    6404.9834    16117.588 
  219900   -254657.62     93.22607   -254564.39    455.60851    6135.6802    16117.588 
  220000   -254660.73    92.955029   -254567.78    454.28389    6117.0143    16117.588 
  220100   -254659.18    91.180329      -254568    445.61069    6079.8601    16117.588 
  220200   -254659.58     94.62319   -254564.95    462.43642    6256.1948    16117.588 
  220300   -254654.87    92.205067   -254562.66    450.61873    6068.2271    16117.588 
  220400   -254654.08    91.521895   -254562.56    447.27997    6023.2997    16117.588 
  220500   -254656.25    92.210105   -254564.04    450.64335      6068.01    16117.588 
  220600   -254657.83    87.847427   -254569.99    429.32234    5843.3044    16117.588 
  220700   -254659.71    90.368372   -254569.34    441.64255    5945.2754    16117.588 
  220800   -254656.37    91.088605   -254565.28    445.16242     5994.158    16117.588 
  220900   -254655.89    93.307419   -254562.59    456.00607    6140.7668    16117.588 
  221000   -254654.42    92.672202   -254561.75    452.90168    6098.7879    16117.588 
  221100   -254657.73    93.047185   -254564.68    454.73427    6124.0365    16117.588 
  221200    -254658.5    90.101746    -254568.4    440.33951    5930.7268    16117.588 
  221300   -254658.06    90.923713   -254567.13    444.35657    6029.4743    16117.588 
  221400   -254657.22    92.388332   -254564.83    451.51437    6114.7022    16117.588 
  221500    -254653.3    90.307867   -254562.99    441.34685    5965.6855    16117.588 
  221600   -254654.45     91.62515   -254562.83    447.78459    6024.7245    16117.588 
  221700   -254656.95    90.925482   -254566.03    444.36522    6065.7086    16117.588 
  221800   -254659.23    89.484175   -254569.75    437.32135    5911.0113    16117.588 
  221900   -254658.68    89.684242      -254569    438.29911     5938.097    16117.588 
  222000   -254655.49     90.43131   -254565.06    441.95013     6106.755    16117.588 
  222100   -254656.01    93.331047   -254562.68    456.12154     6138.932    16117.588 
  222200   -254657.15    94.309111   -254562.84    460.90147     6207.036    16117.588 
  222300   -254655.32     91.52388    -254563.8    447.28967    6051.1439    16117.588 
  222400   -254656.46    90.109948   -254566.35    440.37959    5979.2398    16117.588 
  222500   -254656.76    88.797082   -254567.96    433.96344    5924.2142    16117.588 
  222600   -254658.33    92.878283   -254565.46    453.90882    6107.4032    16117.588 
  222700   -254656.24    94.168693   -254562.07    460.21523    6197.2883    16117.588 
  222800   -254656.37    93.254327   -254563.11     455.7466    6179.4874    16117.588 
  222900   -254658.88    93.243214   -254565.64    455.69229    6269.7712    16117.588 
  223000   -254660.87     92.67444   -254568.19    452.91261    6121.0876    16117.588 
  223100   -254661.19    93.247873   -254567.94    455.71506    6136.1121    16117.588 
  223200   -254658.19    91.167406   -254567.03    445.54753    5997.3561    16117.588 
  223300   -254658.26    93.582539   -254564.67    457.35062    6157.6512    16117.588 
  223400   -254657.78    95.213191   -254562.57    465.31984    6267.1439    16117.588 
  223500   -254655.41    91.851879   -254563.56    448.89265    6067.6173    16117.588 
  223600   -254657.41    89.446117   -254567.97    437.13536    5886.1184    16117.588 
  223700   -254657.05     88.33415   -254568.72    431.70103    5810.3142    16117.588 
  223800   -254658.74    92.955861   -254565.79    454.28796    6116.6935    16117.588 
  223900   -254656.04    92.428519   -254563.61    451.71077    6080.5013    16117.588 
  224000   -254656.91    93.428936   -254563.48    456.59994    6147.0642    16117.588 
  224100   -254656.34    92.136809   -254564.21    450.28514    6148.9583    16117.588 
  224200   -254658.52     92.30436   -254566.21    451.10398     6108.534    16117.588 
  224300   -254660.37    90.408819   -254569.96    441.84021    5979.7368    16117.588 
  224400   -254659.83    90.788701   -254569.05    443.69675    5974.4788    16117.588 
  224500   -254655.31    90.629163   -254564.68    442.91707    5962.4537    16117.588 
  224600   -254654.86    91.600964   -254563.26    447.66639    6069.6813    16117.588 
  224700   -254657.04    93.884408   -254563.16    458.82589    6178.0253    16117.588 
  224800   -254657.72    93.621553    -254564.1    457.54128    6198.2534    16117.588 
  224900   -254658.62    90.076699   -254568.55     440.2171    5925.5546    16117.588 
  225000   -254659.96    91.057004    -254568.9    445.00799    5992.0338    16117.588 
  225100   -254661.52    93.433446   -254568.09    456.62198    6212.3491    16117.588 
  225200   -254659.12    91.935412   -254567.19    449.30088    6050.5799    16117.588 
  225300   -254654.39    92.358932   -254562.03    451.37068    6077.0546    16117.588 
  225400    -254654.8    94.748948   -254560.05    463.05102      6404.16    16117.588 
  225500   -254654.12    91.212377   -254562.91    445.76731    6033.7739    16117.588 
  225600   -254655.65    89.518487   -254566.13    437.48904    5889.2986    16117.588 
  225700   -254655.92    89.509372   -254566.41     437.4445    5888.3812    16117.588 
  225800   -254658.02    91.683595   -254566.34    448.07022    6140.8411    16117.588 
  225900   -254660.16    90.947836   -254569.21    444.47447    6054.9826    16117.588 
  226000   -254660.99    90.754937   -254570.24    443.53174    5968.5733    16117.588 
  226100   -254657.85    92.020118   -254565.83    449.71485    6069.7362    16117.588 
  226200   -254659.79    96.609298   -254563.18     472.1428    6357.5435    16117.588 
  226300   -254659.21    93.942885   -254565.27    459.11168     6215.411    16117.588 
  226400   -254659.54    91.299614   -254568.24    446.19365    6035.3306    16117.588 
  226500   -254659.14    90.070347   -254569.07    440.18606      5924.14    16117.588 
  226600   -254658.26    90.798798   -254567.46     443.7461    5972.8655    16117.588 
  226700   -254657.63     91.19863   -254566.43    445.70013    6042.8598    16117.588 
  226800   -254655.17    89.470946    -254565.7     437.2567    5920.0432    16117.588 
  226900   -254653.86    89.837937   -254564.02    439.05024    5910.3446    16117.588 
  227000   -254658.01    95.504607   -254562.51    466.74402    6286.1424    16117.588 
  227100   -254655.94    91.626612   -254564.31    447.79174    6082.2186    16117.588 
  227200   -254659.02    90.202879   -254568.82    440.83376    5972.3837    16117.588 
  227300    -254661.5    92.301202    -254569.2    451.08855    6137.3956    16117.588 
  227400   -254659.22    92.029204   -254567.19    449.75926    6055.0769    16117.588 
  227500   -254656.38    93.303378   -254563.08    455.98632    6140.5589    16117.588 
  227600   -254656.66    94.197278   -254562.46    460.35493    6196.6029    16117.588 
  227700   -254654.67    91.336703   -254563.33    446.37491    6009.0198    16117.588 
  227800   -254656.66     92.51038   -254564.15    452.11083    6186.0274    16117.588 
  227900   -254655.39    89.665644   -254565.72    438.20822    5898.8937    16117.588 
  228000   -254656.78    91.409963   -254565.37    446.73294    6016.1069    16117.588 
  228100   -254654.84       89.439    -254565.4    437.10058    5885.1318    16117.588 
  228200    -254654.5    90.630642   -254563.87    442.92429    6056.1856    16117.588 
  228300   -254654.04     92.63866    -254561.4    452.73775    6096.2698    16117.588 
  228400   -254652.19    91.496277   -254560.69    447.15477    6021.2104    16117.588 
  228500   -254654.48    93.285996    -254561.2    455.90137    6173.9199    16117.588 
  228600   -254657.39    92.318091   -254565.07    451.17109    6074.5042    16117.588 
  228700   -254658.78    91.863045   -254566.92    448.94722    6076.9106    16117.588 
  228800   -254656.41    90.543224   -254565.86    442.49707    5984.4907    16117.588 
  228900   -254656.86    93.310893   -254563.55    456.02305    6142.9884    16117.588 
  229000   -254655.62    94.268207   -254561.36    460.70157    6205.8818    16117.588 
  229100   -254655.19    94.637296   -254560.56    462.50536    6230.7857    16117.588 
  229200   -254658.17    94.871636   -254563.29    463.65061    6246.8536    16117.588 
  229300   -254660.78    93.268736   -254567.51    455.81702    6140.6948    16117.588 
  229400   -254661.86    93.301181   -254568.56    455.97558    6142.2291    16117.588 
  229500   -254660.56    93.357479    -254567.2    456.25072     6197.426    16117.588 
  229600    -254657.7    92.497401    -254565.2     452.0474    6087.2875    16117.588 
  229700   -254654.97    91.905804   -254563.06    449.15619    6111.9162    16117.588 
  229800   -254656.02    95.878712   -254560.14    468.57233    6341.5908    16117.588 
  229900   -254653.81    92.996292   -254560.81    454.48555    6119.5772    16117.588 
  230000   -254657.38    91.331262   -254566.05    446.34832    6106.2675    16117.588 
  230100   -254656.36    91.261002    -254565.1    446.00495     6158.933    16117.588 
  230200   -254655.72    92.952889   -254562.77    454.27343    6149.3394    16117.588 
  230300   -254655.82    93.894667   -254561.93    458.87603    6177.3981    16117.588 
  230400   -254655.86    91.085831   -254564.77    445.14886    5993.6229    16117.588 
  230500   -254660.15    91.062129   -254569.08    445.03303    6043.0913    16117.588 
  230600   -254660.49    91.323559   -254569.17    446.31068    6013.4846    16117.588 
  230700   -254657.54    90.033736    -254567.5    440.00713    5926.1235    16117.588 
  230800   -254658.87     92.66353   -254566.21     452.8593    6098.8159    16117.588 
  230900   -254657.64    91.242933   -254566.39    445.91665    6041.4778    16117.588 
  231000   -254656.94    88.818925   -254568.12    434.07019    5906.5717    16117.588 
  231100    -254660.6    92.848142   -254567.76    453.76152    6115.1507    16117.588 
  231200    -254659.3     95.03911   -254564.26    464.46908    6293.2166    16117.588 
  231300   -254659.39    94.693542    -254564.7    462.78024    6229.7976    16117.588 
  231400   -254661.21    92.611018    -254568.6    452.60266    6089.9531    16117.588 
  231500   -254658.36    88.843421   -254569.52     434.1899    5848.3736    16117.588 
  231600   -254657.44    92.971942   -254564.47    454.36654    6195.6432    16117.588 
  231700   -254658.36    95.654999    -254562.7    467.47901    6323.6537    16117.588 
  231800   -254658.69    92.860687   -254565.83    453.82283     6114.574    16117.588 
  231900   -254658.72    90.616613   -254568.11    442.85573    5963.1488    16117.588 
  232000   -254659.54    90.182223   -254569.36    440.73281    5938.0081    16117.588 
  232100   -254660.68    92.917743   -254567.76    454.10167    6118.8733    16117.588 
  232200   -254656.35    92.428201   -254563.93    451.70921     6213.831    16117.588 
  232300   -254658.54    95.337004    -254563.2    465.92493    6349.2268    16117.588 
  232400   -254656.45    89.535462   -254566.92      437.572    6070.1461    16117.588 
  232500   -254661.04    92.988918   -254568.05    454.44951    6184.4571    16117.588 
  232600   -254658.64    91.650793   -254566.98    447.90991    6034.9409    16117.588 
  232700   -254658.24    92.566848   -254565.68     452.3868    6119.1961    16117.588 
  232800   -254655.71    93.789417   -254561.92    458.36166    6175.1656    16117.588 
  232900   -254653.97     96.56023   -254557.41      471.903    6360.9011    16117.588 
  233000   -254655.57    94.976719   -254560.59    464.16417    6256.1463    16117.588 
  233100   -254657.51    93.869056   -254563.64    458.75086    6238.8047    16117.588 
  233200    -254657.9    94.062304   -254563.83     459.6953    6196.9118    16117.588 
  233300   -254658.61    94.565351   -254564.04    462.15375     6230.098    16117.588 
  233400   -254657.85    92.895181   -254564.95    453.99141    6120.2491    16117.588 
  233500   -254654.78    86.972642   -254567.81    425.04715    5725.9489    16117.588 
  233600   -254659.98    93.174013   -254566.81     455.3541    6161.6343    16117.588 
  233700   -254655.71    93.729461   -254561.98    458.06864    6311.2137    16117.588 
  233800   -254654.21    93.956821   -254560.25    459.17978    6188.2873    16117.588 
  233900   -254650.73    90.190285   -254560.54    440.77221    5939.2272    16117.588 
  234000   -254653.64    91.726275   -254561.91     448.2788    6041.7848    16117.588 
  234100   -254659.15    91.513496   -254567.64    447.23892     6026.796    16117.588 
  234200   -254659.61    91.504454   -254568.11    447.19473     6025.002    16117.588 
  234300      -254661    93.707725    -254567.3    457.96242    6172.3591    16117.588 
  234400   -254658.53    91.250911   -254567.28    445.95563    6035.0999    16117.588 
  234500   -254656.65    90.461239   -254566.18     442.0964    5954.2503    16117.588 
  234600   -254658.23    94.866282   -254563.36    463.62444    6247.3027    16117.588 
  234700   -254659.62    95.053338   -254564.56    464.53861    6261.7466    16117.588 
  234800   -254656.98    89.111481   -254567.86    435.49995    5867.6019    16117.588 
  234900   -254657.17    89.741973   -254567.43    438.58125    5909.4241    16117.588 
  235000   -254657.31    93.052501   -254564.26    454.76025    6128.0202    16117.588 
  235100   -254653.39    90.519687   -254562.87    442.38204    5960.0097    16117.588 
  235200   -254654.27    92.916294   -254561.35    454.09459    6115.8986    16117.588 
  235300   -254654.83    93.972368   -254560.85    459.25577    6190.3401    16117.588 
  235400   -254655.32    91.154972   -254564.17    445.48677    6002.7872    16117.588 
  235500   -254658.67    91.456275   -254567.21    446.95927    6051.7441    16117.588 
  235600   -254660.15    93.140254   -254567.01    455.18911    6136.3911    16117.588 
  235700   -254658.98    92.039471   -254566.94    449.80944    6115.4313    16117.588 
  235800   -254658.64     92.11473   -254566.53    450.17723    6068.0442    16117.588 
  235900   -254656.11    89.406463    -254566.7    436.94157    5889.2789    16117.588 
  236000   -254660.18    95.896657   -254564.28    468.66003     6317.474    16117.588 
  236100   -254656.42    93.461116   -254562.96    456.75721    6154.8202    16117.588 
  236200   -254658.29    95.078853   -254563.21    464.66331    6262.8302    16117.588 
  236300   -254657.66    93.741953   -254563.91     458.1297    6175.7921    16117.588 
  236400   -254656.64    93.142757    -254563.5    455.20135    6171.9806    16117.588 
  236500   -254657.38    92.203867   -254565.17    450.61286    6193.7209    16117.588 
  236600   -254660.98    90.739214   -254570.25     443.4549    5976.4664    16117.588 
  236700   -254659.15    88.052762    -254571.1    430.32585    5777.9924    16117.588 
  236800    -254661.1    92.307761   -254568.79    451.12061    6076.2271    16117.588 
  236900    -254659.2    92.363826   -254566.83     451.3946    6082.6741    16117.588 
  237000      -254658    93.412947   -254564.59     456.5218    6152.2472    16117.588 
  237100   -254656.42    93.764423   -254562.66    458.23951    6230.4098    16117.588 
  237200   -254655.93    94.813057   -254561.12    463.36433    6329.9755    16117.588 
  237300   -254656.33    93.399394   -254562.93    456.45556    6149.2337    16117.588 
  237400   -254659.92     92.45171   -254567.47     451.8241     6085.012    16117.588 
  237500   -254661.83    92.784878   -254569.05    453.45234    6109.5975    16117.588 
  237600   -254659.86    90.287294   -254569.57    441.24631    5983.5667    16117.588 
  237700   -254659.43     93.42394      -254566    456.57552     6183.304    16117.588 
  237800   -254657.79    94.929378   -254562.86     463.9328    6281.2433    16117.588 
  237900   -254657.39    93.183894    -254564.2    455.40239    6203.2073    16117.588 
  238000    -254658.5    92.484952   -254566.01    451.98656     6088.088    16117.588 
  238100   -254659.85    91.317929   -254568.53    446.28316    6059.5928    16117.588 
  238200   -254659.12    90.060817   -254569.06    440.13948    5926.5736    16117.588 
  238300   -254654.64     90.95049   -254563.69    444.48743     5987.639    16117.588 
  238400   -254653.49    91.936088   -254561.55    449.30419    6121.9811    16117.588 
  238500   -254656.52    95.152479   -254561.36    465.02313    6289.9625    16117.588 
  238600   -254657.75    92.209474   -254565.54    450.64026    6069.2867    16117.588 
  238700   -254659.63    92.308686   -254567.32    451.12513    6078.5265    16117.588 
  238800   -254660.95    93.436097   -254567.51    456.63494    6182.1294    16117.588 
  238900   -254661.26    91.560062    -254569.7     447.4665    6095.5895    16117.588 
  239000    -254663.3    90.106352   -254573.19    440.36202    5931.0315    16117.588 
  239100   -254661.66    85.656186      -254576    418.61345    5697.1697    16117.588 
  239200   -254663.05    91.182538   -254571.87    445.62149     6035.074    16117.588 
  239300   -254663.68      93.9812   -254569.69    459.29893    6222.9664    16117.588 
  239400   -254662.12    91.289293   -254570.83    446.14321    6010.2438    16117.588 
  239500   -254662.27    91.054057   -254571.22    444.99358    6065.2052    16117.588 
  239600   -254660.62    93.062039   -254567.56    454.80686    6276.1075    16117.588 
  239700   -254662.08    97.649811   -254564.43    477.22793    6431.2802    16117.588 
  239800   -254659.63    92.404537   -254567.23    451.59356    6082.6126    16117.588 
  239900   -254659.42    90.174569   -254569.24     440.6954    5976.7951    16117.588 
  240000   -254659.58    90.584567      -254569    442.69912    6104.9712    16117.588 
  240100   -254658.06    92.321809   -254565.74    451.18926    6074.8028    16117.588 
  240200   -254657.47    92.834771   -254564.63    453.69617    6110.5443    16117.588 
  240300   -254658.27    92.708631   -254565.56    453.07971    6102.8643    16117.588 
  240400   -254659.85    93.502069   -254566.34    456.95735    6190.2441    16117.588 
  240500   -254655.98    88.894828   -254567.08    434.44113    5919.5391    16117.588 
  240600   -254659.17    89.844109   -254569.32     439.0804    5912.6659    16117.588 
  240700    -254658.7    90.129407   -254568.57    440.47469    5995.8019    16117.588 
  240800   -254658.21    93.144562   -254565.07    455.21017    6133.3417    16117.588 
  240900   -254659.64    95.720578   -254563.92    467.79951    6327.8013    16117.588 
  241000   -254660.58    93.622732   -254566.96    457.54705    6214.9183    16117.588 
  241100   -254660.41    89.023417   -254571.38    435.06957    5859.4794    16117.588 
  241200   -254660.64    90.940089    -254569.7     444.4366    5985.8145    16117.588 
  241300   -254659.24    91.977299   -254567.27    449.50559    6082.8974    16117.588 
  241400   -254658.13    92.968388   -254565.17    454.34918    6119.9319    16117.588 
  241500   -254659.32     95.14674   -254564.17    464.99508    6263.7244    16117.588 
  241600   -254657.34    94.014418   -254563.32    459.46127     6189.507    16117.588 
  241700   -254657.23    90.468218   -254566.77    442.13051    5955.4467    16117.588 
  241800    -254659.5    90.129523   -254569.37    440.47526    5933.9857    16117.588 
  241900   -254656.93    89.327208    -254567.6    436.55423    5978.7896    16117.588 
  242000   -254657.35    93.303395   -254564.04     455.9864    6143.2713    16117.588 
  242100   -254656.73    92.041387   -254564.69     449.8188     6059.345    16117.588 
  242200   -254657.23    90.593792   -254566.63     442.7442    5964.1871    16117.588 
  242300   -254657.36    87.202531   -254570.16    426.17065     5738.089    16117.588 
  242400    -254662.1    89.209043   -254572.89    435.97675    5902.1326    16117.588 
  242500   -254660.78    89.644469   -254571.13    438.10473    5899.5756    16117.588 
  242600   -254660.96    94.520582   -254566.44    461.93496    6223.4954    16117.588 
  242700   -254657.41    92.280833   -254565.13    450.98901    6121.2193    16117.588 
  242800   -254657.84    92.318726   -254565.52    451.17419    6078.8812    16117.588 
  242900   -254657.49    89.609206   -254567.88     437.9324    5947.1763    16117.588 
  243000   -254659.48    88.716257   -254570.76    433.56844    6068.5868    16117.588 
  243100   -254661.35    93.881951   -254567.47    458.81388     6183.099    16117.588 
  243200   -254657.61    92.894132   -254564.72    453.98628    6117.3902    16117.588 
  243300   -254657.97    92.686089   -254565.28    452.96954    6230.3852    16117.588 
  243400   -254658.94    91.494069   -254567.45    447.14398    6021.5896    16117.588 
  243500   -254659.02    91.603076   -254567.42    447.67671    6031.6874    16117.588 
  243600   -254659.51    95.701021   -254563.81    467.70393     6336.314    16117.588 
  243700   -254655.39    93.088379    -254562.3    454.93559    6129.7566    16117.588 
  243800   -254659.39    92.569228   -254566.82    452.39843    6091.6575    16117.588 
  243900      -254662    91.486767   -254570.51    447.10829     6020.511    16117.588 
  244000   -254659.75    88.363043   -254571.39    431.84223    5815.4209    16117.588 
  244100   -254660.51    91.004392    -254569.5    444.75086    6048.5297    16117.588 
  244200      -254658    92.764498   -254565.24    453.35274    6135.5502    16117.588 
  244300   -254656.81    91.724136   -254565.08    448.26835    6038.3651    16117.588 
  244400   -254657.76    92.047822   -254565.71    449.85025    6053.4238    16117.588 
  244500   -254656.82    91.566468   -254565.25    447.49781    6027.3899    16117.588 
  244600   -254656.82    92.569967   -254564.25    452.40204    6153.6722    16117.588 
  244700   -254656.98     95.21881   -254561.76     465.3473     6294.139    16117.588 
  244800   -254657.61    93.865374   -254563.74    458.73287     6217.941    16117.588 
  244900   -254657.46    90.279728   -254567.18    441.20933    5942.3848    16117.588 
  245000   -254657.23     90.32643    -254566.9    441.43757    5945.1807    16117.588 
  245100   -254654.96    91.087437   -254563.88    445.15672    6099.5464    16117.588 
  245200   -254656.16    93.750125   -254562.41    458.16963    6171.9312    16117.588 
  245300   -254657.79    94.050839   -254563.74    459.63926    6252.2535    16117.588 
  245400    -254654.8     89.64908   -254565.15    438.12727    5945.8036    16117.588 
  245500   -254657.15    91.293977   -254565.85    446.16611    6009.2724    16117.588 
  245600   -254658.18    90.097351   -254568.08    440.31803      5930.64    16117.588 
  245700   -254660.59    89.356002   -254571.24    436.69495    5954.4354    16117.588 
  245800   -254658.18    88.288645   -254569.89    431.47864     5877.429    16117.588 
  245900   -254658.67    93.589361   -254565.08    457.38396    6221.4807    16117.588 
  246000   -254657.13    92.650218   -254564.48    452.79424    6098.6607    16117.588 
  246100   -254657.89    92.187021    -254565.7    450.53053    6069.2188    16117.588 
  246200   -254657.76    90.408343   -254567.35    441.83789    5951.3995    16117.588 
  246300   -254658.33    92.460365   -254565.87     451.8664    6086.8639    16117.588 
  246400   -254655.56    94.186595   -254561.37    460.30272    6230.4304    16117.588 
  246500   -254653.96     92.25073   -254561.71    450.84188    6107.5243    16117.588 
  246600   -254657.32    92.320079      -254565     451.1808    6109.1705    16117.588 
  246700   -254659.79    91.688493    -254568.1    448.09416    6035.5969    16117.588 
  246800   -254659.67    91.949804   -254567.72    449.37122    6054.9824    16117.588 
  246900   -254658.41    91.720327   -254566.69    448.24973    6036.0829    16117.588 
  247000   -254656.57    91.129607   -254565.44     445.3628    5999.3878    16117.588 
  247100    -254657.5    93.634813   -254563.87    457.60609     6165.744    16117.588 
  247200   -254658.83    93.373269   -254565.46    456.32789    6148.8289    16117.588 
  247300   -254660.63    91.643702   -254568.99    447.87526    6033.7978    16117.588 
  247400    -254657.4    89.437186   -254567.96    437.09171    5888.0773    16117.588 
  247500   -254657.89    93.971675   -254563.92    459.25238    6241.1105    16117.588 
  247600   -254658.42    95.313914   -254563.11    465.81208    6276.6249    16117.588 
  247700   -254656.74    91.426733   -254565.31     446.8149    6135.7655    16117.588 
  247800    -254659.4    93.345115   -254566.05     456.1903    6143.8369    16117.588 
  247900   -254657.37    91.469082    -254565.9    447.02187    6205.7036    16117.588 
  248000   -254660.26    93.212754   -254567.05    455.54343    6137.7208    16117.588 
  248100    -254661.3    90.601458    -254570.7    442.78167    6005.5978    16117.588 
  248200   -254661.52    91.297723   -254570.22    446.18441    6011.7622    16117.588 
  248300   -254661.26    94.129476   -254567.13    460.02357    6247.4263    16117.588 
  248400   -254658.42    94.210297   -254564.21    460.41856    6280.3258    16117.588 
  248500   -254657.68    92.274933    -254565.4    450.96017    6171.3927    16117.588 
  248600   -254660.44    89.801379   -254570.64    438.87157    5910.9007    16117.588 
  248700   -254660.01     89.18829   -254570.82    435.87532    5999.5179    16117.588 
  248800   -254659.03    90.929695    -254568.1    444.38581    5986.7755    16117.588 
  248900   -254658.03    93.517615   -254564.51    457.03333    6208.3278    16117.588 
  249000   -254655.52    91.160894   -254564.36    445.51571    6003.9733    16117.588 
  249100   -254659.94    94.281004   -254565.66    460.76411    6210.9894    16117.588 
  249200   -254659.66    90.076751   -254569.58    440.21736    5970.6068    16117.588 
  249300   -254659.01    87.395821   -254571.61    427.11528    5792.1243    16117.588 
  249400   -254661.19    93.471507   -254567.72    456.80799    6154.1541    16117.588 
  249500   -254657.29    92.229336   -254565.06    450.73733    6098.7655    16117.588 
  249600   -254654.38     90.14706   -254564.24    440.56096    5962.6164    16117.588 
  249700   -254657.61    94.058855   -254563.55    459.67844    6194.0626    16117.588 
  249800   -254659.49    93.683458    -254565.8    457.84383    6169.5949    16117.588 
  249900   -254657.85    88.345023   -254569.51    431.75417    5814.7622    16117.588 
  250000   -254661.46    91.895197   -254569.56    449.10435    6049.9566    16117.588 
  250100   -254657.91    90.332427   -254567.58    441.46688      5978.92    16117.588 
  250200   -254657.35    91.694546   -254565.65    448.12374    6036.3336    16117.588 
  250300   -254656.62    91.451677   -254565.17     446.9368    6107.6858    16117.588 
  250400   -254658.52    93.424239    -254565.1    456.57699    6151.3489    16117.588 
  250500    -254658.8    91.796369      -254567    448.62136    6068.7722    16117.588 
  250600   -254660.42    89.634382   -254570.78    438.05544    5959.4354    16117.588 
  250700   -254660.88    88.994675   -254571.89     434.9291    5857.9742    16117.588 
  250800   -254659.66    90.467375   -254569.19    442.12639    5954.1294    16117.588 
  250900   -254659.15    91.419625   -254567.73    446.78016     6125.183    16117.588 
  251000    -254659.1    90.828772   -254568.27    443.89258    5976.6697    16117.588 
  251100   -254658.36    89.450282   -254568.91    437.15571    5887.2958    16117.588 
  251200   -254660.41    93.185433   -254567.23    455.40991    6258.8944    16117.588 
  251300   -254656.75    93.657281   -254563.09    457.71589    6203.7072    16117.588 
  251400   -254656.91    94.631546   -254562.28    462.47726    6220.7553    16117.588 
  251500   -254656.26    90.731461   -254565.53    443.41701      5966.78    16117.588 
  251600   -254658.92    92.241546   -254566.68      450.797    6120.3087    16117.588 
  251700   -254658.99    92.285902   -254566.71    451.01378    6098.3784    16117.588 
  251800    -254661.9     95.83879   -254566.06    468.37723    6335.5105    16117.588 
  251900   -254659.21    92.729824   -254566.48    453.18328     6133.085    16117.588 
  252000   -254660.32    92.119585    -254568.2    450.20096    6064.2272    16117.588 
  252100   -254662.28    94.266203   -254568.01    460.69178    6233.8343    16117.588 
  252200   -254659.45    91.587432   -254567.87    447.60026    6069.4575    16117.588 
  252300    -254659.2    93.595472   -254565.61    457.41382    6217.9255    16117.588 
  252400   -254656.82    93.561991   -254563.26     457.2502    6161.6919    16117.588 
  252500   -254656.89     94.29619   -254562.59    460.83833    6209.1566    16117.588 
  252600   -254656.55    90.983144   -254565.57    444.64702    6026.2997    16117.588 
  252700   -254658.84    90.305425   -254568.54    441.33491     5945.539    16117.588 
  252800   -254657.91    90.350371   -254567.56    441.55457    5994.6967    16117.588 
  252900   -254655.76    93.195399   -254562.57    455.45861    6179.6812    16117.588 
  253000   -254657.81    95.847942   -254561.96    468.42195    6315.2399    16117.588 
  253100   -254657.05    92.326034   -254564.72    451.20991     6110.591    16117.588 
  253200   -254659.39    91.982135   -254567.41    449.52922    6101.7373    16117.588 
  253300   -254658.46     89.61648   -254568.84    437.96795    5952.3529    16117.588 
  253400   -254659.18    91.088669   -254568.09    445.16274    6042.3181    16117.588 
  253500   -254659.99    92.827319   -254567.16    453.65975    6114.9937    16117.588 
  253600   -254656.23    88.991952   -254567.23    434.91579    5854.6902    16117.588 
  253700   -254657.93    90.379582   -254567.55    441.69733    5945.7436    16117.588 
  253800   -254660.62    93.039173   -254567.58    454.69512    6155.8252    16117.588 
  253900   -254658.83    90.375916   -254568.45    441.67942    5978.2127    16117.588 
  254000      -254660    92.060899   -254567.94    449.91416    6096.9375    16117.588 
  254100   -254659.84    93.179231   -254566.66     455.3796    6136.7831    16117.588 
  254200   -254657.33    93.744042   -254563.58    458.13991    6171.9089    16117.588 
  254300   -254660.44    96.286453   -254564.15    470.56501    6341.6218    16117.588 
  254400   -254660.11    91.005906    -254569.1    444.75826    5991.1907    16117.588 
  254500    -254662.5    92.931911   -254569.57    454.17091     6120.016    16117.588 
  254600   -254662.66    92.537803   -254570.13    452.24485    6093.0004    16117.588 
  254700   -254660.14    90.992662   -254569.14    444.69353    5991.6512    16117.588 
  254800   -254658.42    93.762526   -254564.65    458.23024    6169.8889    16117.588 
  254900   -254659.77    95.796634   -254563.97     468.1712    6308.7186    16117.588 
  255000   -254660.17    93.410132   -254566.76    456.50804    6188.4846    16117.588 
  255100    -254659.4    92.321281   -254567.08    451.18668    6121.2654    16117.588 
  255200   -254657.93    91.920642   -254566.01     449.2287    6053.1434    16117.588 
  255300   -254657.58    92.478994    -254565.1    451.95744     6091.045    16117.588 
  255400   -254660.15    94.770814   -254565.38    463.15788    6241.3013    16117.588 
  255500   -254659.52    87.490522   -254572.03     427.5781    5761.0087    16117.588 
  255600   -254661.09     89.13378   -254571.96    435.60892    5986.6058    16117.588 
  255700   -254657.48    89.258112   -254568.23    436.21655    5876.8265    16117.588 
  255800   -254656.26    91.100305   -254565.16     445.2196    6058.7332    16117.588 
  255900   -254658.61    94.406673    -254564.2    461.37827    6244.9775    16117.588 
  256000   -254659.04    91.713549   -254567.32    448.21661    6086.2498    16117.588 
  256100   -254659.72       89.169   -254570.55    435.78105    6000.2862    16117.588 
  256200   -254658.29    89.440276   -254568.85    437.10681    5884.7879    16117.588 
  256300   -254659.54    93.036705   -254566.51    454.68305    6175.1736    16117.588 
  256400   -254658.42    93.414943      -254565    456.53156    6219.9081    16117.588 
  256500   -254660.14    93.675302   -254566.47    457.80396    6167.7409    16117.588 
  256600   -254660.07    89.515483   -254570.56    437.47436    5894.6111    16117.588 
  256700   -254661.61    89.746526   -254571.87     438.6035    5936.4868    16117.588 
  256800   -254661.07    92.477157    -254568.6    451.94847    6088.6663    16117.588 
  256900   -254661.43    94.576334   -254566.85    462.20743    6228.5495    16117.588 
  257000   -254660.52    93.176917   -254567.35    455.36829    6165.4948    16117.588 
  257100   -254662.58    94.166751   -254568.42    460.20574    6200.1465    16117.588 
  257200   -254659.66    89.009787   -254570.65    435.00296    5898.2376    16117.588 
  257300   -254660.56    90.525343   -254570.04    442.40968    6025.5799    16117.588 
  257400   -254658.66    93.736864   -254564.92    458.10483    6204.3295    16117.588 
  257500    -254656.5    91.784703   -254564.71    448.56435    6075.4482    16117.588 
  257600   -254654.74    88.714085   -254566.03    433.55782    5929.4445    16117.588 
  257700   -254655.78    90.145455   -254565.64    440.55312    5937.0635    16117.588 
  257800   -254658.68    94.293813   -254564.38    460.82671    6394.3476    16117.588 
  257900   -254657.35    92.279698   -254565.07    450.98345    6119.3605    16117.588 
  258000   -254656.95    90.349432    -254566.6    441.54998    6015.8945    16117.588 
  258100   -254659.11    92.520791   -254566.59    452.16171    6084.4568    16117.588 
  258200   -254657.09    90.967296   -254566.13    444.56957    5991.4553    16117.588 
  258300    -254659.4    94.792671    -254564.6     463.2647    6238.4789    16117.588 
  258400   -254658.62    92.412684    -254566.2    451.63338    6085.7201    16117.588 
  258500   -254662.49    92.947481   -254569.54      454.247    6214.6441    16117.588 
  258600   -254661.44    90.362806   -254571.08    441.61534    5951.9131    16117.588 
  258700   -254661.44     93.07923   -254568.36    454.89088     6131.655    16117.588 
  258800   -254657.78    94.155755   -254563.63      460.152    6202.5702    16117.588 
  258900   -254658.22    96.123975    -254562.1    469.77096     6376.288    16117.588 
  259000    -254656.5    92.925097   -254563.57    454.13761    6122.6134    16117.588 
  259100   -254661.76    95.295492   -254566.46    465.72205    6310.5969    16117.588 
  259200   -254658.01    89.422931   -254568.58    437.02205    5997.9799    16117.588 
  259300    -254660.4    92.367365   -254568.03     451.4119    6147.5489    16117.588 
  259400   -254657.66    92.363415   -254565.29    451.39259    6115.4859    16117.588 
  259500   -254656.85    95.646225   -254561.21    467.43613    6302.8969    16117.588 
  259600   -254656.32    92.971934   -254563.35    454.36651    6151.1366    16117.588 
  259700   -254655.95    89.859457   -254566.09    439.15541    6037.2442    16117.588 
  259800    -254656.2    90.266255   -254565.93    441.14348    5944.5988    16117.588 
  259900   -254655.13    89.550969   -254565.58    437.64779    5897.0495    16117.588 
  260000    -254655.8    91.009795   -254564.79    444.77727    5995.0072    16117.588 
  260100   -254656.57    91.756937   -254564.81    448.42865    6043.7681    16117.588 
  260200   -254656.43    90.905479   -254565.52    444.26746    6045.8918    16117.588 
  260300    -254656.5    90.994168    -254565.5     444.7009    5992.8083    16117.588 
  260400   -254655.31    91.284224   -254564.03    446.11844    6141.0829    16117.588 
  260500   -254654.48    91.276933   -254563.21     446.0828    6093.6623    16117.588 
  260600   -254657.56    93.548514   -254564.01    457.18433    6193.7192    16117.588 
  260700    -254658.5    92.077372   -254566.42    449.99466    6232.8409    16117.588 
  260800   -254659.65     89.33341   -254570.31    436.58454    5880.0803    16117.588 
  260900   -254659.38    88.778619    -254570.6    433.87321     5926.798    16117.588 
  261000   -254659.58    91.037804   -254568.54    444.91415    6033.5177    16117.588 
  261100   -254659.23    93.001843   -254566.23    454.51268     6174.014    16117.588 
  261200   -254656.39    91.903472   -254564.49    449.14479    6099.1837    16117.588 
  261300   -254659.73     96.70221   -254563.02    472.59687    6393.4053    16117.588 
  261400   -254658.63    91.980806   -254566.65    449.52273    6055.2341    16117.588 
  261500   -254661.38    91.899588   -254569.48    449.12581    6049.0207    16117.588 
  261600   -254660.61    92.374883   -254568.24    451.44864    6081.3978    16117.588 
  261700   -254657.14    91.470437   -254565.67    447.02849    6019.9404    16117.588 
  261800   -254655.07    90.737575   -254564.33    443.44689    6070.0144    16117.588 
  261900   -254657.83    93.387529   -254564.44    456.39758    6272.5937    16117.588 
  262000   -254658.92    93.073066   -254565.84    454.86076    6127.5897    16117.588 
  262100   -254657.72     90.46341   -254567.26    442.10701    5983.8767    16117.588 
  262200   -254656.95    89.713105   -254567.24    438.44017    5946.7848    16117.588 
  262300   -254659.85    95.254174    -254564.6    465.52013    6272.7005    16117.588 
  262400   -254656.98    95.932233   -254561.05    468.83389    6356.0181    16117.588 
  262500   -254658.61      94.0013   -254564.61    459.39716    6191.2407    16117.588 
  262600   -254660.02    91.523748    -254568.5    447.28902    6028.0408    16117.588 
  262700   -254661.06    92.591569   -254568.47    452.50761    6097.5994    16117.588 
  262800   -254657.84      90.5474   -254567.29    442.51748    5961.8122    16117.588 
  262900   -254657.39    93.563028   -254563.83    457.25526     6162.083    16117.588 
  263000   -254657.29    92.465796   -254564.82    451.89294     6172.428    16117.588 
  263100   -254659.61    90.392626   -254569.21    441.76108    6034.2709    16117.588 
  263200   -254659.83    89.987829   -254569.85    439.78278    5924.7951    16117.588 
  263300   -254661.86    92.937513   -254568.93    454.19829    6160.0096    16117.588 
  263400    -254659.9    94.072332   -254565.83     459.7443    6194.1718    16117.588 
  263500   -254658.36    95.005282   -254563.36    464.30376    6256.7388    16117.588 
  263600    -254654.8    92.494164   -254562.31    452.03158    6113.8943    16117.588 
  263700   -254660.89    94.632434   -254566.26     462.4816    6261.4642    16117.588 
  263800    -254661.8    92.965029   -254568.84    454.33276    6150.8794    16117.588 
  263900   -254663.64    94.710222   -254568.93    462.86176    6234.6274    16117.588 
  264000   -254660.81    91.406476    -254569.4     446.7159    6018.1255    16117.588 
  264100   -254660.38     91.06719   -254569.32    445.05776    5997.6575    16117.588 
  264200   -254657.43    92.207883   -254565.22    450.63249    6071.1219    16117.588 
  264300   -254654.14    92.224938   -254561.92    450.71583    6122.8118    16117.588 
  264400   -254654.84    93.215649   -254561.62    455.55758    6138.4578    16117.588 
  264500   -254657.44     92.00926   -254565.43    449.66179    6118.5993    16117.588 
  264600   -254658.05    89.893173   -254568.16    439.32018    5918.7497    16117.588 
  264700   -254657.62    90.529508   -254567.09    442.43004    5992.8595    16117.588 
  264800   -254660.05    92.171681   -254567.87    450.45556    6070.4609    16117.588 
  264900   -254660.97    91.672144    -254569.3    448.01426    6037.0129    16117.588 
  265000   -254662.81    91.036575   -254571.78    444.90814    5995.5316    16117.588 
  265100   -254660.88    89.680104    -254571.2    438.27889     5964.615    16117.588 
  265200   -254663.54    96.706432   -254566.84    472.61751    6398.0735    16117.588 
  265300   -254660.09    94.568061   -254565.53      462.167    6267.9227    16117.588 
  265400   -254659.41    94.925563   -254564.49    463.91416    6305.9288    16117.588 
  265500   -254658.07    92.658229   -254565.41    452.83339    6201.8392    16117.588 
  265600   -254662.71    94.061747   -254568.65    459.69257    6220.7489    16117.588 
  265700   -254659.43     88.87559   -254570.55    434.34712    5917.7089    16117.588 
  265800    -254657.5    89.319353   -254568.18    436.51585    5905.7291    16117.588 
  265900   -254656.56    92.497268   -254564.06    452.04675    6093.3947    16117.588 
  266000   -254657.54      93.4851   -254564.05    456.87442    6155.7733    16117.588 
  266100   -254659.11    93.070156   -254566.04    454.84653    6131.5435    16117.588 
  266200   -254659.48    92.096834   -254567.38    450.08978    6066.1374    16117.588 
  266300   -254657.59    90.254411   -254567.34     441.0856     5967.349    16117.588 
  266400    -254658.5    94.409285   -254564.09    461.39104    6310.3556    16117.588 
  266500    -254657.2    95.627517   -254561.58    467.34471    6300.8498    16117.588 
  266600   -254657.08    92.809932   -254564.27    453.57478     6142.178    16117.588 
  266700   -254658.47    92.421238   -254566.05    451.67518    6087.7607    16117.588 
  266800   -254657.26     90.69712   -254566.56    443.24918    5996.4984    16117.588 
  266900   -254657.32    90.437795   -254566.88    441.98183    5954.5243    16117.588 
  267000   -254658.13    94.139559   -254563.99    460.07285    6262.6939    16117.588 
  267100    -254654.1    92.256809   -254561.84     450.8716    6074.8026    16117.588 
  267200   -254651.28    90.378337    -254560.9    441.69125     5947.647    16117.588 
  267300   -254654.57     93.85379   -254560.72    458.67626    6181.6331    16117.588 
  267400   -254654.05    89.078318   -254564.97    435.33788    5862.3516    16117.588 
  267500   -254656.32    91.135521   -254565.18    445.39171    6035.5958    16117.588 
  267600      -254657    94.152747   -254562.85     460.1373    6197.1885    16117.588 
  267700   -254654.65    93.352197    -254561.3    456.22491    6145.3603    16117.588 
  267800   -254657.81    94.156224   -254563.65     460.1543     6199.677    16117.588 
  267900   -254659.86      92.3525    -254567.5    451.33925     6080.369    16117.588 
  268000   -254657.04    89.153612   -254567.89    435.70585    5915.5769    16117.588 
  268100    -254657.1    93.085669   -254564.02    454.92235    6129.4185    16117.588 
  268200   -254657.39    94.190352    -254563.2    460.32108    6202.5021    16117.588 
  268300   -254656.92    92.980896   -254563.94    454.41031    6149.4698    16117.588 
  268400   -254659.36    92.594848   -254566.76    452.52364    6099.0441    16117.588 
  268500   -254658.46    91.234234   -254567.23    445.87413    6035.6384    16117.588 
  268600   -254658.81    93.108403    -254565.7    455.03345    6130.2825    16117.588 
  268700   -254657.76    92.748007   -254565.01    453.27215    6104.7129    16117.588 
  268800   -254657.39    91.066304   -254566.32    445.05343    5990.5055    16117.588 
  268900   -254658.86    88.989406   -254569.87    434.90335    5986.3596    16117.588 
  269000   -254660.09     90.40144   -254569.69    441.80416    5948.2645    16117.588 
  269100   -254656.99    91.804055   -254565.18    448.65893    6096.8564    16117.588 
  269200    -254658.2    94.570307   -254563.63    462.17798    6223.6238    16117.588 
  269300   -254656.91    91.580977   -254565.32    447.56871    6048.9395    16117.588 
  269400   -254659.12    91.666931   -254567.45    447.98878    6071.1451    16117.588 
  269500   -254658.61    90.300007   -254568.31    441.30844     5935.597    16117.588 
  269600   -254661.43    93.789399   -254567.64    458.36157     6173.302    16117.588 
  269700   -254659.57    92.313475   -254567.25    451.14853     6178.982    16117.588 
  269800   -254659.17    92.939854   -254566.23    454.20973    6211.5209    16117.588 
  269900   -254658.68     93.51846   -254565.16    457.03745    6185.9562    16117.588 
  270000   -254656.78    90.576122    -254566.2    442.65785    6007.2953    16117.588 
  270100   -254658.37    90.907211   -254567.47    444.27592    6016.3045    16117.588 
  270200   -254660.29    91.963937   -254568.33    449.44029    6045.8571    16117.588 
  270300   -254661.85    91.856866      -254570    448.91702    6044.6452    16117.588 
  270400   -254660.37    88.086794   -254572.29    430.49216    5795.5358    16117.588 
  270500    -254663.1    92.015421   -254571.08     449.6919    6086.6271    16117.588 
  270600   -254658.16    91.232047   -254566.93    445.86344    6091.9173    16117.588 
  270700    -254658.2    92.792937   -254565.41    453.49172    6107.9941    16117.588 
  270800   -254656.27    90.247926   -254566.03    441.05391    5938.2139    16117.588 
  270900   -254659.83    90.390308   -254569.43    441.74975    5973.8694    16117.588 
  271000   -254662.13    90.669071   -254571.46     443.1121    5991.3117    16117.588 
  271100   -254658.49    90.890724    -254567.6    444.19535    5980.0593    16117.588 
  271200   -254659.45    94.425506   -254565.03    461.47031     6241.941    16117.588 
  271300   -254659.26    92.938369   -254566.32    454.20247    6154.0574    16117.588 
  271400   -254658.97    90.613284   -254568.35    442.83947    6045.6811    16117.588 
  271500   -254663.38    91.758129   -254571.62    448.43448    6039.4855    16117.588 
  271600   -254664.12    89.703912   -254574.41    438.39524    5904.2248    16117.588 
  271700   -254661.45    88.867375   -254572.58    434.30697    5946.2134    16117.588 
  271800   -254657.61    91.333805   -254566.28    446.36075    6009.5028    16117.588 
  271900   -254657.87     92.55183   -254565.32     452.3134    6090.9953    16117.588 
  272000   -254658.47    93.202726   -254565.27    455.49442    6132.6139    16117.588 
  272100   -254657.53    91.696239   -254565.84    448.13201    6034.8809    16117.588 
  272200   -254658.89    94.009807   -254564.88    459.43873    6223.8944    16117.588 
  272300   -254660.22    95.311055    -254564.9    465.79811    6300.6612    16117.588 
  272400    -254659.4     92.00002    -254567.4    449.61663    6049.8613    16117.588 
  272500   -254658.64    89.638506      -254569    438.07559    6024.4684    16117.588 
  272600   -254661.45    94.802567   -254566.65    463.31306    6235.7662    16117.588 
  272700   -254657.43    94.303717   -254563.12    460.87511    6203.9228    16117.588 
  272800   -254656.43    92.693762   -254563.74    453.00704    6122.1084    16117.588 
  272900   -254658.91    90.432511   -254568.48      441.956    6036.8029    16117.588 
  273000   -254660.57    91.265309   -254569.31      446.026    6003.8277    16117.588 
  273100   -254659.02     90.67157   -254568.35    443.12431    5965.2609    16117.588 
  273200    -254659.1    92.161728   -254566.93    450.40692    6094.7227    16117.588 
  273300   -254657.11    93.147979   -254563.96    455.22686    6128.7863    16117.588 
  273400   -254657.92    95.344255   -254562.57    465.96036    6378.0345    16117.588 
  273500   -254659.75    92.527646   -254567.22    452.19521    6090.0091    16117.588 
  273600   -254660.79    90.309147   -254570.48     441.3531     6019.746    16117.588 
  273700   -254661.18    90.827298   -254570.35    443.88538    5975.8285    16117.588 
  273800   -254661.38    94.094305   -254567.29    459.85169    6258.7415    16117.588 
  273900   -254658.58    94.316999   -254564.26    460.94003    6274.3736    16117.588 
  274000   -254657.54     92.70213   -254564.84    453.04794    6156.9186    16117.588 
  274100   -254659.03     90.18638   -254568.84    440.75313      5962.62    16117.588 
  274200   -254663.42    90.499406   -254572.92    442.28293    5990.3217    16117.588 
  274300   -254662.21    91.978041   -254570.23    449.50922    6055.7683    16117.588 
  274400   -254660.53    92.288028   -254568.24    451.02417    6076.6932    16117.588 
  274500   -254660.27    93.034451   -254567.23    454.67204    6125.9298    16117.588 
  274600   -254655.01     89.20914    -254565.8    435.97722    5941.4411    16117.588 
  274700   -254656.23    94.889722   -254561.34      463.739     6297.674    16117.588 
  274800   -254654.95    92.064692   -254562.88    449.93269    6091.7673    16117.588 
  274900   -254654.88    88.275581   -254566.61    431.41479    5843.4931    16117.588 
  275000   -254661.32    93.386426   -254567.93    456.39219     6145.719    16117.588 
  275100   -254659.89    91.517908   -254568.38    447.26048     6070.858    16117.588 
  275200   -254659.67    91.980575   -254567.69     449.5216     6121.083    16117.588 
  275300   -254658.32     91.83788   -254566.48    448.82423    6046.8478    16117.588 
  275400   -254656.12     93.85983   -254562.26    458.70578    6181.1752    16117.588 
  275500    -254654.1    93.266406   -254560.84    455.80563    6216.7335    16117.588 
  275600   -254658.71     95.06644   -254563.65    464.60265    6290.7377    16117.588 
  275700   -254658.02    90.413086   -254567.61    441.86107    6200.8811    16117.588 
  275800   -254658.13    91.052985   -254567.08    444.98834    5992.9505    16117.588 
  275900   -254657.53    92.522876   -254565.01     452.1719    6094.2775    16117.588 
  276000   -254656.55    93.767521   -254562.78    458.25465    6309.7244    16117.588 
  276100   -254658.53    92.816649   -254565.71    453.60761    6172.8975    16117.588 
  276200   -254661.57    91.685874   -254569.88    448.08136    6136.4014    16117.588 
  276300   -254659.12    90.373577   -254568.75    441.66798    5949.6973    16117.588 
  276400   -254659.22     92.48191   -254566.74     451.9717     6377.178    16117.588 
  276500   -254658.46    94.218812   -254564.24    460.46017    6231.1539    16117.588 
  276600   -254657.86    92.553891    -254565.3    452.32347    6120.5402    16117.588 
  276700   -254659.56    89.314864   -254570.25    436.49391    5876.9192    16117.588 
  276800   -254661.95     90.68188   -254571.27     443.1747    6030.6828    16117.588 
  276900   -254660.38    90.167013   -254570.21    440.65848    5930.8228    16117.588 
  277000   -254657.88    92.661068   -254565.22    452.84726    6099.9916    16117.588 
  277100    -254657.5    94.482418   -254563.02    461.74845    6256.7742    16117.588 
  277200   -254657.36    93.500586   -254563.86     456.9501    6150.7562    16117.588 
  277300    -254657.8    91.744002   -254566.06    448.36544    6037.6021    16117.588 
  277400   -254660.03    91.496422   -254568.54    447.15548    6023.0764    16117.588 
  277500   -254661.05    89.906883   -254571.14    439.38719    5997.8583    16117.588 
  277600   -254663.16     91.05902    -254572.1    445.01784      6025.83    16117.588 
  277700   -254661.55    93.279471   -254568.27    455.86948     6170.701    16117.588 
  277800   -254658.96    93.321616   -254565.63    456.07545    6205.7594    16117.588 
  277900   -254657.52     91.58311   -254565.93    447.57914    6086.5837    16117.588 
  278000   -254656.52    90.018638    -254566.5    439.93335    5894.3754    16117.588 
  278100   -254656.66    92.564115    -254564.1    452.37344     6174.183    16117.588 
  278200   -254657.18    95.673767    -254561.5    467.57073    6330.9605    16117.588 
  278300   -254656.57    92.973579    -254563.6    454.37455    6118.2543    16117.588 
  278400    -254658.7    91.403217    -254567.3    446.69997    6141.1745    16117.588 
  278500   -254657.67    90.762664   -254566.91    443.56951    5973.0481    16117.588 
  278600   -254656.54      90.7633   -254565.78    443.57261    6020.3835    16117.588 
  278700   -254658.75    92.876323   -254565.87    453.89924    6135.2366    16117.588 
  278800   -254659.16    92.016706   -254567.15    449.69818    6055.2286    16117.588 
  278900   -254660.11    90.672859   -254569.44    443.13062    5967.7091    16117.588 
  279000   -254659.19     89.48596   -254569.71    437.33008    5914.9761    16117.588 
  279100   -254659.92     91.53704   -254568.38    447.35398    6067.8804    16117.588 
  279200   -254658.87    92.160641   -254566.71    450.40161    6118.4648    16117.588 
  279300   -254659.29    94.124873   -254565.17    460.00108    6194.5099    16117.588 
  279400   -254656.88    94.233227   -254562.65    460.53062    6201.1883    16117.588 
  279500   -254655.61    92.806392   -254562.81    453.55748     6104.093    16117.588 
  279600   -254658.25    92.290986   -254565.96    451.03862    6071.8008    16117.588 
  279700   -254658.35    90.254983   -254568.09     441.0884    5937.5364    16117.588 
  279800   -254657.89     92.33248   -254565.56    451.24141    6251.1629    16117.588 
  279900   -254658.67    97.494614   -254561.18    476.46946    6482.6028    16117.588 
  280000   -254658.56    94.774441   -254563.79     463.1756    6234.5247    16117.588 
  280100   -254656.81    89.930822   -254566.88    439.50418    5916.9418    16117.588 
  280200   -254659.76    92.827641   -254566.93    453.66133    6107.1717    16117.588 
  280300      -254658    93.747674   -254564.25    458.15765    6213.5391    16117.588 
  280400   -254659.74    97.239293    -254562.5    475.22167    6401.6405    16117.588 
  280500   -254660.46    92.578895   -254567.88    452.44567    6091.3106    16117.588 
  280600   -254660.35    90.513219   -254569.83    442.35043    5955.6346    16117.588 
  280700   -254660.41    91.000755   -254569.41    444.73309    6036.8138    16117.588 
  280800   -254659.26    91.382836   -254567.88    446.60037    6013.0833    16117.588 
  280900   -254657.65    93.460115   -254564.19    456.75231    6148.6631    16117.588 
  281000   -254655.37    93.844097   -254561.52    458.62889    6260.7815    16117.588 
  281100   -254656.82    93.101341   -254563.72    454.99894    6125.9958    16117.588 
  281200   -254659.73     91.31781   -254568.42    446.28258    6007.0722    16117.588 
  281300   -254660.48    92.083011   -254568.39    450.02222    6059.1871    16117.588 
  281400   -254659.28    91.013345   -254568.27    444.79462    6047.7439    16117.588 
  281500   -254661.21    93.320247   -254567.89    456.06876    6165.5456    16117.588 
  281600   -254659.31    92.652247   -254566.66    452.80416     6097.151    16117.588 
  281700    -254659.6    94.828723   -254564.78    463.44089    6241.3668    16117.588 
  281800   -254656.64      91.9301   -254564.71    449.27492     6089.514    16117.588 
  281900      -254653    89.922274   -254563.08    439.46241    5916.3627    16117.588 
  282000    -254653.9    94.416167   -254559.49    461.42467    6257.3872    16117.588 
  282100    -254656.2    94.454158   -254561.75    461.61034    6246.3448    16117.588 
  282200   -254658.76    93.722823   -254565.04     458.0362    6232.6185    16117.588 
  282300   -254659.34    92.968023   -254566.37    454.34739    6119.1098    16117.588 
  282400   -254658.15     89.93312   -254568.22    439.51541    5992.1811    16117.588 
  282500   -254658.41    90.183726   -254568.23    440.74016    5931.3312    16117.588 
  282600   -254659.38    92.051842   -254567.33    449.86989    6058.3739    16117.588 
  282700   -254659.68     96.39696   -254563.28    471.10507     6344.993    16117.588 
  282800    -254657.9    93.199358    -254564.7    455.47796    6241.6189    16117.588 
  282900   -254659.64    92.239804    -254567.4    450.78849    6072.1943    16117.588 
  283000   -254659.03    90.855635   -254568.17    444.02387    5978.1153    16117.588 
  283100      -254658    93.929096   -254564.07    459.04429    6184.5225    16117.588 
  283200   -254657.04    96.468234   -254560.57     471.4534    6347.7628    16117.588 
  283300   -254657.73    94.929105   -254562.81    463.93147    6251.9908    16117.588 
  283400   -254660.19    93.011383   -254567.18     454.5593    6189.8583    16117.588 
  283500   -254660.56    91.529898   -254569.03    447.31908    6026.1621    16117.588 
  283600   -254660.66     90.65527      -254570    443.04465    5964.4649    16117.588 
  283700   -254658.05    89.900269   -254568.15    439.35486    5916.7728    16117.588 
  283800   -254656.64    93.150796   -254563.49    455.24063    6128.2543    16117.588 
  283900   -254656.66    92.483617   -254564.18    451.98004    6173.0182    16117.588 
  284000   -254661.59     93.99007    -254567.6    459.34228    6188.0993    16117.588 
  284100   -254662.44    92.788252   -254569.66    453.46883    6108.2239    16117.588 
  284200   -254662.42    92.734951   -254569.68    453.20834    6175.1951    16117.588 
  284300   -254660.38    92.518699   -254567.86    452.15149     6086.959    16117.588 
  284400   -254655.93    92.065512   -254563.86     449.9367    6279.4722    16117.588 
  284500   -254657.52    95.419704    -254562.1     466.3291    6283.1969    16117.588 
  284600   -254657.09    92.885325   -254564.21    453.94324    6191.6055    16117.588 
  284700   -254658.79    92.605836   -254566.19    452.57734    6093.6293    16117.588 
  284800    -254659.1    90.941063   -254568.16    444.44136    5987.6817    16117.588 
  284900   -254660.64    92.778235   -254567.86    453.41988    6108.4515    16117.588 
  285000   -254660.63    92.767419   -254567.87    453.36701    6107.8096    16117.588 
  285100   -254659.49    90.524255   -254568.97    442.40437    6009.8773    16117.588 
  285200   -254658.15    90.475087   -254567.67    442.16408    5952.4645    16117.588 
  285300   -254655.93    91.993322   -254563.94     449.5839    6147.0801    16117.588 
  285400   -254655.65    92.890286   -254562.76    453.96749    6116.6441    16117.588 
  285500   -254656.77    92.048981   -254564.72    449.85591    6269.5449    16117.588 
  285600   -254660.32    90.163999   -254570.16    440.64375     5972.552    16117.588 
  285700    -254660.7    90.650005   -254570.05    443.01892    5967.1681    16117.588 
  285800   -254659.51    91.965648   -254567.54    449.44865    6053.0499    16117.588 
  285900   -254657.76    92.559796   -254565.21    452.35233     6143.312    16117.588 
  286000   -254657.13    93.055966   -254564.08    454.77718    6156.7998    16117.588 
  286100   -254659.04    91.522336   -254567.52    447.28212    6058.9066    16117.588 
  286200   -254659.69    88.515112   -254571.17    432.58541    5825.0678    16117.588 
  286300   -254662.58    93.309508   -254569.27    456.01628    6144.0761    16117.588 
  286400   -254659.24    92.361723   -254566.88    451.38432    6119.6405    16117.588 
  286500    -254655.7    89.781107   -254565.92     438.7725    5909.1305    16117.588 
  286600   -254656.14    90.923017   -254565.22    444.35317    5984.2396    16117.588 
  286700   -254658.62    92.515971   -254566.11    452.13816    6090.5758    16117.588 
  286800   -254658.04    89.523831   -254568.52    437.51516    6037.7871    16117.588 
  286900   -254661.28     88.64197   -254572.64    433.20539    5834.2784    16117.588 
  287000   -254663.76    92.671232   -254571.09    452.89694    6130.5054    16117.588 
  287100   -254658.54    91.058864   -254567.48    445.01707    5995.3878    16117.588 
  287200   -254658.67    92.227659   -254566.44    450.72913    6107.3879    16117.588 
  287300   -254660.27    93.867649    -254566.4    458.74399     6223.614    16117.588 
  287400    -254658.9    89.908256      -254569     439.3939    5919.6061    16117.588 
  287500   -254664.15    92.671313   -254571.48    452.89733     6175.165    16117.588 
  287600   -254662.55    91.156173   -254571.39    445.49264    6041.2646    16117.588 
  287700   -254659.26    92.444075   -254566.82    451.78679    6182.2568    16117.588 
  287800   -254660.12    95.086228   -254565.03    464.69935    6258.2036    16117.588 
  287900   -254657.81    91.378823   -254566.44    446.58076    6003.9888    16117.588 
  288000   -254657.28    87.614212   -254569.67    428.18259    5910.5971    16117.588 
  288100   -254660.85    88.783708   -254572.06    433.89808    5876.7087    16117.588 
  288200   -254661.66    89.852057   -254571.81    439.11924    5914.3038    16117.588 
  288300   -254662.53    94.856435   -254567.67    463.57632    6297.7107    16117.588 
  288400   -254661.51    93.838983   -254567.67    458.60389    6290.5683    16117.588 
  288500   -254660.88    90.558866   -254570.32    442.57352    5982.7536    16117.588 
  288600   -254661.82    90.629496   -254571.19    442.91869     6004.282    16117.588 
  288700   -254658.29    92.309507   -254565.98    451.12914     6074.438    16117.588 
  288800   -254658.49    94.454788   -254564.03    461.61342    6250.4026    16117.588 
  288900    -254655.3    90.286451   -254565.01    441.24219    5940.5912    16117.588 
  289000   -254657.68    91.471453   -254566.21    447.03345    6018.6976    16117.588 
  289100    -254657.2    88.969775   -254568.23    434.80741    5876.3882    16117.588 
  289200   -254661.01    90.068164   -254570.94    440.17539    5927.6614    16117.588 
  289300   -254661.07    90.694209   -254570.38    443.23496    5992.1293    16117.588 
  289400   -254658.85    93.558766   -254565.29    457.23444    6263.1477    16117.588 
  289500   -254656.65    92.480638   -254564.17    451.96548    6113.2059    16117.588 
  289600   -254660.42      94.2425   -254566.18    460.57594    6205.1551    16117.588 
  289700   -254663.32    93.600708   -254569.72    457.43941    6163.7131    16117.588 
  289800   -254659.51    89.129779   -254570.38    435.58937    5866.6129    16117.588 
  289900   -254659.48    91.111271   -254568.37     445.2732    5997.4818    16117.588 
  290000   -254657.17    90.539502   -254566.63    442.47888    5958.9474    16117.588 
  290100   -254656.49    91.404682   -254565.09    446.70713     6108.344    16117.588 
  290200   -254657.17    93.992507   -254563.18    459.35419    6217.5734    16117.588 
  290300   -254658.24    95.419967   -254562.82    466.33038    6284.8775    16117.588 
  290400   -254660.05    93.215148   -254566.83    455.55513    6137.7703    16117.588 
  290500    -254660.7     91.13917   -254569.56    445.40954    5999.0304    16117.588 
  290600   -254659.58    91.166091   -254568.41    445.54111    6041.4377    16117.588 
  290700    -254654.4     89.62608   -254564.78    438.01486    5899.0981    16117.588 
  290800   -254655.55    92.324449   -254563.22    451.20216    6126.6407    16117.588 
  290900   -254659.54    94.064572   -254565.48    459.70638    6287.7163    16117.588 
  291000   -254660.07    92.085691   -254567.98    450.03532    6172.8783    16117.588 
  291100   -254660.41    91.773506   -254568.64    448.50963    6040.5579    16117.588 
  291200   -254659.89    91.691653    -254568.2     448.1096    6036.8716    16117.588 
  291300   -254659.06    96.835656   -254562.22    473.24904    6374.6836    16117.588 
  291400   -254655.02    92.441336   -254562.58     451.7734    6112.0131    16117.588 
  291500   -254660.63    94.061445   -254566.57     459.6911    6189.2688    16117.588 
  291600   -254660.01     91.14031   -254568.87    445.41511    5998.5346    16117.588 
  291700   -254658.06    88.778419   -254569.28    433.87223    5868.0418    16117.588 
  291800   -254658.27    92.900266   -254565.37    454.01625    6165.9689    16117.588 
  291900   -254660.46    96.286506   -254564.18    470.56528    6396.3043    16117.588 
  292000   -254660.99    91.852228   -254569.14    448.89435    6045.4213    16117.588 
  292100   -254660.68    89.288802   -254571.39    436.36654    5975.4172    16117.588 
  292200   -254660.03    89.949132   -254570.08    439.59366    5917.4595    16117.588 
  292300   -254660.32     93.59601   -254566.73    457.41645    6157.6692    16117.588 
  292400   -254658.96    94.082238   -254564.88    459.79271    6221.2038    16117.588 
  292500   -254658.68    92.727973   -254565.96    453.17424    6139.4267    16117.588 
  292600   -254660.21    89.855584   -254570.35    439.13648    5989.0097    16117.588 
  292700   -254663.78    91.523119   -254572.26    447.28595    6023.3462    16117.588 
  292800   -254660.16    90.486982   -254569.67    442.22221     5954.947    16117.588 
  292900   -254659.58    91.410748   -254568.17    446.73678    6015.5363    16117.588 
  293000   -254660.44    91.258369   -254569.18    445.99208    6065.7907    16117.588 
  293100   -254663.29    93.205477   -254570.09    455.50787    6135.7099    16117.588 
  293200   -254658.75    90.013889   -254568.74    439.91014    5924.1316    16117.588 
  293300   -254658.02    93.930302   -254564.09    459.05018    6232.8977    16117.588 
  293400   -254656.17    93.000298   -254563.17    454.50513    6119.3223    16117.588 
  293500   -254655.61    90.647095   -254564.96     443.0047    5991.4589    16117.588 
  293600   -254660.25    92.480517   -254567.77    451.96489    6115.0163    16117.588 
  293700   -254659.68      87.5758   -254572.11    427.99487    5761.4974    16117.588 
  293800   -254657.92     87.81934    -254570.1    429.18508    5823.3028    16117.588 
  293900   -254660.18    92.724368   -254567.46    453.15662    6102.3503    16117.588 
  294000   -254658.84    93.357529   -254565.48    456.25096    6145.0615    16117.588 
  294100   -254658.05    93.045257   -254565.01    454.72485    6125.1975    16117.588 
  294200   -254659.69    94.786843    -254564.9    463.23622    6263.5249    16117.588 
  294300   -254657.52    88.810319   -254568.71    434.02813     5843.781    16117.588 
  294400   -254660.98    91.136892   -254569.84    445.39841    5996.6393    16117.588 
  294500   -254660.14    92.652472   -254567.49    452.80525    6133.5988    16117.588 
  294600   -254657.96    94.770498   -254563.19    463.15634    6283.7886    16117.588 
  294700   -254657.27     93.37567    -254563.9    456.33962    6177.8435    16117.588 
  294800   -254657.08    91.611068   -254565.47    447.71577    6057.4599    16117.588 
  294900   -254658.47    92.241413   -254566.23    450.79635    6069.5088    16117.588 
  295000   -254661.33    95.512074   -254565.81    466.78052    6338.7584    16117.588 
  295100   -254658.78    92.591506   -254566.19     452.5073    6182.1414    16117.588 
  295200   -254662.87    94.306846   -254568.57     460.8904     6207.891    16117.588 
  295300    -254658.1    87.316223   -254570.78    426.72628    5745.1037    16117.588 
  295400   -254660.62    93.858868   -254566.76    458.70107    6309.2143    16117.588 
  295500   -254658.11    93.413015    -254564.7    456.52213    6149.0552    16117.588 
  295600   -254659.48    94.217356   -254565.26    460.45306    6203.2518    16117.588 
  295700   -254659.43    91.065518   -254568.36    445.04959    6082.6838    16117.588 
  295800   -254661.88    90.837292   -254571.04    443.93422    5978.8805    16117.588 
  295900   -254660.71    88.786075   -254571.92    433.90965    5939.1445    16117.588 
  296000   -254658.26    89.241368   -254569.02    436.13472    5894.0816    16117.588 
  296100   -254657.25    92.080467   -254565.17    450.00979    6059.3385    16117.588 
  296200   -254658.43    94.402037   -254564.03    461.35562    6212.3464    16117.588 
  296300   -254655.61    91.278151   -254564.33    446.08876    6002.0076    16117.588 
  296400   -254657.67    91.643286   -254566.03    447.87323    6070.4209    16117.588 
  296500   -254658.81    91.021257   -254567.79    444.83328    6012.3487    16117.588 
  296600   -254658.89    90.703896   -254568.19     443.2823    5969.7266    16117.588 
  296700   -254654.58    90.519674   -254564.06    442.38198    5957.9908    16117.588 
  296800   -254655.98    95.324957   -254560.66    465.86605     6276.144    16117.588 
  296900   -254654.41    92.734109   -254561.67    453.20422    6133.7724    16117.588 
  297000   -254655.92    92.790779   -254563.13    453.48118    6107.2576    16117.588 
  297100   -254655.49    91.573127   -254563.92    447.53035    6025.4966    16117.588 
  297200   -254656.93    94.203263   -254562.72    460.38418    6201.8862    16117.588 
  297300    -254655.7    94.037404   -254561.66    459.57361    6273.3203    16117.588 
  297400   -254653.62     91.14547   -254562.47    445.44033    6064.8701    16117.588 
  297500      -254655    88.844727   -254566.16    434.19628    5845.9862    16117.588 
  297600   -254658.31    91.472308   -254566.84    447.03763    6019.9094    16117.588 
  297700   -254658.62    91.950043   -254566.67    449.37239    6051.9783    16117.588 
  297800   -254661.85    96.136394   -254565.71    469.83166    6361.2378    16117.588 
  297900    -254657.9    91.197152   -254566.71     445.6929    6001.8016    16117.588 
  298000   -254659.13    92.275907   -254566.85    450.96493    6100.0506    16117.588 
  298100   -254657.73    89.838455    -254567.9    439.05277    5911.4374    16117.588 
  298200   -254662.25    93.071641   -254569.18    454.85379    6124.7452    16117.588 
  298300   -254660.39    91.037592   -254569.35    444.91311    5989.2628    16117.588 
  298400   -254658.98    93.227793   -254565.75    455.61692    6134.4579    16117.588 
  298500   -254658.09    94.503141   -254563.59    461.84973    6218.6174    16117.588 
  298600   -254656.96    93.618688   -254563.34    457.52728    6265.9598    16117.588 
  298700   -254659.42     91.16022   -254568.26    445.51241    5997.9219    16117.588 
  298800    -254660.1     89.15415   -254570.94    435.70848    5864.3874    16117.588 
  298900   -254661.64    93.117452   -254568.52    455.07767    6154.6091    16117.588 
  299000   -254658.73    92.445387   -254566.28     451.7932    6083.6199    16117.588 
  299100    -254657.2     92.54218   -254564.66    452.26624    6211.2557    16117.588 
  299200   -254657.38    90.121309   -254567.26    440.43512    5928.3489    16117.588 
  299300   -254661.39    90.604647   -254570.78    442.79725    6005.5029    16117.588 
  299400   -254659.81    89.376978   -254570.44    436.79747    5878.8532    16117.588 
  299500   -254659.91    94.243403   -254565.66    460.58035    6196.3023    16117.588 
  299600   -254660.81    95.970746   -254564.84    469.02211    6314.4369    16117.588 
  299700   -254659.48    92.006357   -254567.47     449.6476    6115.4097    16117.588 
  299800   -254659.42    90.212843    -254569.2    440.88246    5931.7085    16117.588 
  299900   -254658.46    89.149419   -254569.31    435.68535    5858.7748    16117.588 
  300000    -254660.9    92.410657   -254568.49    451.62347    6080.3727    16117.588 
  300100   -254653.58    90.329331   -254563.25    441.45175     5939.931    16117.588 
  300200   -254656.31    94.274584   -254562.04    460.73273    6414.3613    16117.588 
  300300   -254658.13    92.424964    -254565.7    451.69339    6083.2751    16117.588 
  300400   -254659.28    91.447605   -254567.83     446.9169    6124.0121    16117.588 
  300500   -254661.09    92.532765   -254568.56    452.22023    6090.4581    16117.588 
  300600   -254658.85     90.81639   -254568.04    443.83207    6003.4796    16117.588 
  300700   -254657.94    95.344248    -254562.6    465.96033    6355.7417    16117.588 
  300800   -254655.72    92.603183   -254563.11    452.56437    6107.8968    16117.588 
  300900   -254659.52    93.732517   -254565.79    458.08358    6169.3842    16117.588 
  301000   -254659.12     91.25009   -254567.87    445.95162    6036.0022    16117.588 
  301100      -254664    94.238908   -254569.76    460.55838    6203.7448    16117.588 
  301200   -254661.54    90.455246   -254571.08    442.06711    5977.9988    16117.588 
  301300   -254663.07    92.184284   -254570.89    450.51715    6109.3995    16117.588 
  301400   -254659.56    93.657046   -254565.91    457.71474    6187.9388    16117.588 
  301500    -254660.4    96.254736   -254564.15    470.41001    6337.0557    16117.588 
  301600    -254656.7    90.667637   -254566.03    443.10509    5991.9874    16117.588 
  301700   -254660.88    92.132218   -254568.75     450.2627    6062.5529    16117.588 
  301800   -254661.22    90.884108   -254570.33    444.16302    5980.2055    16117.588 
  301900   -254659.48    91.681633    -254567.8    448.06063    6092.1374    16117.588 
  302000   -254654.55    90.786806   -254563.76    443.68749    6004.0889    16117.588 
  302100      -254655    92.325547   -254562.68    451.20753    6072.7897    16117.588 
  302200   -254656.02    91.450664   -254564.57    446.93186    6055.1368    16117.588 
  302300    -254658.9    89.961029   -254568.94    439.65181    5982.8898    16117.588 
  302400   -254659.14    89.029352   -254570.12    435.09857    5946.0581    16117.588 
  302500   -254657.68    89.622969   -254568.06    437.99966    5892.4076    16117.588 
  302600   -254656.15    90.318089   -254565.83    441.39681    6043.1593    16117.588 
  302700   -254657.05    92.931523   -254564.12    454.16901    6154.1242    16117.588 
  302800    -254657.2    92.137895   -254565.06    450.29045    6084.8744    16117.588 
  302900   -254660.24    91.124684   -254569.12    445.33875    5993.2578    16117.588 
  303000   -254659.99    89.949222   -254570.04     439.5941    5916.1535    16117.588 
  303100   -254657.75    91.031978   -254566.71    444.88568    5988.3143    16117.588 
  303200    -254659.7     93.27717   -254566.42    455.85824    6161.5842    16117.588 
  303300   -254657.24    91.621445   -254565.62    447.76648    6027.7506    16117.588 
  303400   -254657.54    92.849935   -254564.69    453.77028    6106.0546    16117.588 
  303500   -254657.56    93.565099      -254564    457.26538    6157.2882    16117.588 
  303600   -254656.64    90.664344   -254565.97      443.089    6069.5899    16117.588 
  303700   -254656.51    89.371271   -254567.13    436.76958    5947.5711    16117.588 
  303800   -254660.07    93.293117   -254566.78    455.93617    6139.0523    16117.588 
  303900   -254660.01    91.638283   -254568.37    447.84878    6104.1926    16117.588 
  304000   -254660.95    90.098397   -254570.85    440.32314    5929.8541    16117.588 
  304100    -254659.4    88.925118   -254570.47    434.58917    5881.7896    16117.588 
  304200   -254657.16    91.613525   -254565.54    447.72778    6029.7577    16117.588 
  304300   -254655.73    91.121825   -254564.61    445.32477    5995.0403    16117.588 
  304400   -254657.19    91.776883   -254565.42    448.52613    6085.7677    16117.588 
  304500   -254657.93    90.287905   -254567.64    441.24929    5981.7063    16117.588 
  304600   -254660.94    88.596354   -254572.34    432.98245    5827.9181    16117.588 
  304700   -254660.64    89.732665    -254570.9    438.53576    6064.2814    16117.588 
  304800    -254660.6    92.487422   -254568.11    451.99863    6086.0752    16117.588 
  304900   -254658.94    91.855853   -254567.09    448.91207    6094.6841    16117.588 
  305000   -254657.06    92.271061   -254564.79    450.94125    6071.2932    16117.588 
  305100   -254656.79    92.273656   -254564.52    450.95393    6133.0805    16117.588 
  305200   -254653.57     89.08492   -254564.49    435.37014     5888.581    16117.588 
  305300   -254657.28    93.337443   -254563.94     456.1528    6143.5837    16117.588 
  305400   -254654.66    90.788384   -254563.87     443.6952    5972.7082    16117.588 
  305500   -254654.75    91.590839   -254563.16    447.61691    6050.8848    16117.588 
  305600   -254658.69    92.947131   -254565.74    454.24529    6118.1973    16117.588 
  305700   -254657.56    87.644073   -254569.92    428.32853    5794.1695    16117.588 
  305800   -254659.92    90.828941   -254569.09    443.89341    5976.9338    16117.588 
  305900   -254658.34    91.656698   -254566.69    447.93877    6127.4334    16117.588 
  306000   -254654.58    89.992003   -254564.59    439.80318    5957.6916    16117.588 
  306100   -254656.64    92.344789   -254564.29    451.30157    6077.2697    16117.588 
  306200   -254656.96    92.624583   -254564.33    452.66896    6171.6721    16117.588 
  306300   -254656.77    91.322495   -254565.44    446.30548    6008.2308    16117.588 
  306400   -254658.27    90.031937   -254568.24    439.99834    5996.6566    16117.588 
  306500   -254660.84    88.577035   -254572.27    432.88804    5827.7789    16117.588 
  306600   -254662.99    89.431309   -254573.56    437.06299    5977.7209    16117.588 
  306700   -254658.97    90.904407   -254568.07    444.26222    6056.9754    16117.588 
  306800   -254656.92     91.40224   -254565.51     446.6952    6071.8267    16117.588 
  306900   -254657.93    93.719683   -254564.21    458.02086     6190.903    16117.588 
  307000   -254653.69    90.773683   -254562.91    443.62336    6026.0995    16117.588 
  307100   -254657.39    95.452673   -254561.94    466.49022     6283.408    16117.588 
  307200    -254656.8    93.497374    -254563.3     456.9344    6240.9694    16117.588 
  307300   -254658.42    90.612661    -254567.8    442.83642    5961.8098    16117.588 
  307400   -254658.73    91.442827   -254567.28    446.89355    6052.2745    16117.588 
  307500   -254659.04    93.703752   -254565.34      457.943    6167.1321    16117.588 
  307600   -254660.72    95.341655   -254565.38    465.94766    6273.9452    16117.588 
  307700   -254661.35    91.041699   -254570.31    444.93319    5989.8705    16117.588 
  307800   -254662.77     91.07498   -254571.69    445.09584    6071.0069    16117.588 
  307900   -254661.01    91.337008   -254569.67     446.3764    6097.0742    16117.588 
  308000    -254659.2    93.303611    -254565.9    455.98746     6162.136    16117.588 
  308100   -254658.72    92.898372   -254565.82      454.007    6111.5289    16117.588 
  308200   -254658.49     91.67253   -254566.81    448.01615    6070.6488    16117.588 
  308300   -254660.97    91.819319   -254569.15    448.73352    6079.2338    16117.588 
  308400   -254661.87    88.772071    -254573.1    433.84121    5838.2865    16117.588 
  308500   -254662.26    91.768662   -254570.49    448.48596    6037.0032    16117.588 
  308600    -254661.4    94.511641   -254566.89    461.89127    6218.4142    16117.588 
  308700   -254656.95    91.038725   -254565.92    444.91865    5986.8049    16117.588 
  308800   -254656.54     91.88302   -254564.66    449.04484    6086.6873    16117.588 
  308900   -254654.68     91.83696   -254562.85    448.81973    6041.0803    16117.588 
  309000   -254657.18    92.711087   -254564.47    453.09172    6159.0188    16117.588 
  309100   -254660.12     91.67675   -254568.45    448.03677    6030.7402    16117.588 
  309200   -254659.82    90.979652   -254568.84    444.62996    5982.6247    16117.588 
  309300   -254659.84    93.163998   -254566.67    455.30515    6127.3132    16117.588 
  309400   -254655.54    93.390111   -254562.15     456.4102     6143.007    16117.588 
  309500   -254656.83    95.137952   -254561.69    464.95213    6310.1487    16117.588 
  309600   -254654.51    90.861227   -254563.65     444.0512    5973.8887    16117.588 
  309700   -254654.89    89.941951   -254564.95    439.55857    5910.8575    16117.588 
  309800   -254661.03    94.480427   -254566.55    461.73872    6248.2941    16117.588 
  309900   -254661.28    91.532397   -254569.75     447.3313    6053.7674    16117.588 
  310000   -254660.19    89.921151   -254570.27    439.45692    5908.7664    16117.588 
  310100   -254657.51    89.816589    -254567.7    438.94591    5988.8615    16117.588 
  310200   -254659.28    93.852877   -254565.43     458.6718    6349.7186    16117.588 
  310300    -254657.9    91.670041   -254566.23    448.00398    6167.8292    16117.588 
  310400   -254657.37    90.347294   -254567.02    441.53953     5940.367    16117.588 
  310500    -254658.3    89.140045   -254569.16    435.63954    5892.2118    16117.588 
  310600   -254661.16    90.212957   -254570.94    440.88301    5932.0969    16117.588 
  310700   -254661.28    92.195399   -254569.08    450.57148     6087.415    16117.588 
  310800   -254656.55    91.841454   -254564.71     448.8417    6065.7436    16117.588 
  310900   -254656.82    92.643714   -254564.18    452.76245     6093.973    16117.588 
  311000   -254658.19    91.816627   -254566.37    448.72037    6069.5848    16117.588 
  311100   -254655.99    89.715464   -254566.28     438.4517    5933.0284    16117.588 
  311200   -254654.94    94.179567   -254560.76    460.26837    6195.9022    16117.588 
  311300      -254653    93.298345    -254559.7    455.96172    6166.2617    16117.588 
  311400   -254655.19    92.504462   -254562.68    452.08191    6083.0709    16117.588 
  311500   -254654.58    88.875186   -254565.71    434.34514     5919.913    16117.588 
  311600   -254657.16    90.703484   -254566.45    443.28028    6022.5919    16117.588 
  311700    -254657.5    91.504968   -254565.99    447.19725    6015.3161    16117.588 
  311800   -254657.23    92.146045   -254565.08    450.33028    6060.5857    16117.588 
  311900    -254654.9    95.501654    -254559.4     466.7296    6282.1591    16117.588 
  312000   -254653.56    94.061058    -254559.5    459.68921    6187.3144    16117.588 
  312100   -254653.93     91.10531   -254562.82    445.24406    5988.0681    16117.588 
  312200   -254653.79    88.788967      -254565    433.92378    5835.3271    16117.588 
  312300    -254660.6    95.547595   -254565.05    466.95411    6363.6838    16117.588 
  312400   -254660.18     92.16269   -254568.02    450.41162    6061.2962    16117.588 
  312500   -254663.81    91.077574   -254572.73    445.10852    6073.6954    16117.588 
  312600   -254657.51    86.009588    -254571.5    420.34058    5712.5186    16117.588 
  312700   -254658.22    90.510428   -254567.71    442.33679    5950.8298    16117.588 
  312800   -254658.41    91.880795   -254566.53    449.03397    6039.0243    16117.588 
  312900    -254656.5    90.643923   -254565.86     442.9892    5958.1373    16117.588 
  313000   -254656.82     91.35396   -254565.47    446.45925    6004.0963    16117.588 
  313100   -254655.63     92.29519   -254563.34    451.05917    6068.1633    16117.588 
  313200   -254656.63     96.13012    -254560.5    469.80099    6379.0167    16117.588 
  313300   -254673.08    83.559383   -254589.52    408.36609    5559.0262    16117.588 
  313400   -254673.04    82.032294      -254591      400.903    5396.5208    16117.588 
  313500   -254674.25    81.094237   -254593.16    396.31858    5334.8611    16117.588 
  313600   -254675.24    81.132602   -254594.11    396.50608    5376.8137    16117.588 
  313700   -254672.26    80.669934   -254591.59    394.24496    5335.9001    16117.588 
  313800   -254671.67    83.720112   -254587.95    409.15159     5509.206    16117.588 
  313900   -254667.82      80.3641   -254587.45     392.7503     5285.315    16117.588 
  314000   -254669.95    81.931909   -254588.02     400.4124    5390.3743    16117.588 
  314100   -254672.13    79.623651   -254592.51    389.13163    5238.0379    16117.588 
  314200   -254673.36     78.79152   -254594.57    385.06489    5217.0072    16117.588 
  314300   -254673.19    81.483912    -254591.7    398.22298    5360.0796    16117.588 
  314400   -254669.32     80.35718   -254588.96    392.71649    5286.1227    16117.588 
  314500   -254669.05    81.016207   -254588.03    395.93724    5358.4466    16117.588 
  314600   -254670.71     82.32099   -254588.39    402.31389    5415.9381    16117.588 
  314700   -254671.35    79.180185   -254592.17    386.96435    5206.8687    16117.588 
  314800      -254673    80.249185   -254592.75     392.1887    5276.8395    16117.588 
  314900   -254670.88    80.410774   -254590.47    392.97841    5287.6814    16117.588 
  315000   -254671.25    83.285108   -254587.97    407.02567    5638.3287    16117.588 
  315100   -254671.88    82.986718    -254588.9     405.5674    5459.2588    16117.588 
  315200   -254671.46    80.691154   -254590.77    394.34866    5306.9173    16117.588 
  315300   -254672.76    81.421915   -254591.34    397.91999    5354.0748    16117.588 
  315400   -254671.87    83.285397   -254588.59    407.02708     5477.815    16117.588 
  315500    -254671.7     86.00666    -254585.7    420.32627    5659.2764    16117.588 
  315600   -254668.83    82.190628   -254586.63     401.6768    5529.3635    16117.588 
  315700   -254672.05    82.105084   -254589.95    401.25873    5447.4649    16117.588 
  315800   -254673.71    81.067527   -254592.64    396.18805    5469.0284    16117.588 
  315900    -254675.2    82.507519   -254592.69    403.22549    5427.9307    16117.588 
  316000   -254672.87    81.588885   -254591.28      398.736    5393.9194    16117.588 
  316100   -254672.84    83.481007   -254589.36    407.98306    5491.9784    16117.588 
  316200   -254672.34    83.219189   -254589.12    406.70351    5519.7385    16117.588 
  316300   -254674.63     80.70627   -254593.93    394.42254    5342.5414    16117.588 
  316400   -254675.27    80.376246   -254594.89    392.80967    5286.3452    16117.588 
  316500   -254675.58    82.555028   -254593.02    403.45767    5430.8432    16117.588 
  316600   -254671.87    81.631272   -254590.24    398.94315    5369.9443    16117.588 
  316700   -254674.44    86.064073   -254588.37    420.60685    5727.7158    16117.588 
  316800   -254671.51    80.838974   -254590.67    395.07108    5424.4097    16117.588 
  316900   -254673.25    78.775114   -254594.48    384.98472    5180.7019    16117.588 
  317000   -254673.51    80.802566   -254592.71    394.89315     5311.954    16117.588 
  317100   -254671.31    81.322366   -254589.99    397.43348    5378.1594    16117.588 
  317200   -254671.67     82.65296   -254589.02    403.93627    5435.0959    16117.588 
  317300   -254672.77    81.891727   -254590.88    400.21603     5386.926    16117.588 
  317400   -254673.29    78.592335    -254594.7    384.09145    5259.0793    16117.588 
  317500   -254675.86    78.638658   -254597.22    384.31783    5171.9367    16117.588 
  317600   -254677.52    80.918522    -254596.6    395.45984    5322.7212    16117.588 
  317700   -254673.17    80.221635   -254592.94    392.05406    5275.4515    16117.588 
  317800   -254672.77    81.900905   -254590.86    400.26088    5511.9209    16117.588 
  317900   -254672.95    81.978119   -254590.98    400.63824    5427.4701    16117.588 
  318000   -254671.22    79.582759   -254591.64    388.93178     5233.716    16117.588 
  318100   -254671.29    79.250008   -254592.04    387.30559    5213.7091    16117.588 
  318200   -254671.32    81.523719    -254589.8    398.41752    5509.1467    16117.588 
  318300   -254670.77    81.984895   -254588.79    400.67135    5393.2058    16117.588 
  318400   -254671.34    81.834392   -254589.51    399.93582    5476.1364    16117.588 
  318500   -254673.92    80.674097   -254593.25    394.26531    5304.9825    16117.588 
  318600   -254673.11    79.545664   -254593.57     388.7505    5229.5866    16117.588 
  318700   -254670.56    80.701887   -254589.86    394.40112    5307.2308    16117.588 
  318800   -254669.31    80.719232   -254588.59    394.48589    5307.8272    16117.588 
  318900   -254671.06    82.208771   -254588.86    401.76547    5407.4795    16117.588 
  319000   -254673.96    82.130143   -254591.83     401.3812    5445.6199    16117.588 
  319100   -254675.52    82.344573   -254593.17    402.42915    5417.3391    16117.588 
  319200   -254677.39    81.849714   -254595.54     400.0107    5472.3033    16117.588 
  319300   -254677.64     79.54486   -254598.09    388.74657    5232.4577    16117.588 
  319400   -254676.46    78.135326   -254598.33    381.85799    5139.7275    16117.588 
  319500   -254674.01    79.850613   -254594.16    390.24083    5253.3995    16117.588 
  319600   -254675.29    83.871518   -254591.42    409.89154    5519.1377    16117.588 
  319700   -254673.02    82.704384   -254590.31    404.18759    5441.0026    16117.588 
  319800    -254673.6    81.321146   -254592.28    397.42752    5350.8697    16117.588 
  319900   -254674.96     80.58326   -254594.37    393.82137    5301.2164    16117.588 
  320000   -254674.06    78.315701   -254595.75     382.7395    5165.0892    16117.588 
  320100   -254677.77    84.561992   -254593.21    413.26597    5564.6775    16117.588 
  320200   -254674.99    84.293511    -254590.7    411.95387     5577.385    16117.588 
  320300   -254672.69    81.871631   -254590.82    400.11782    5385.5763    16117.588 
  320400   -254671.03    82.290544   -254588.74     402.1651    5415.4281    16117.588 
  320500   -254668.86    83.776899   -254585.08    409.42912    5509.9523    16117.588 
  320600   -254669.49    83.012376   -254586.48    405.69279    5446.2309    16117.588 
  320700   -254670.94    81.202525   -254589.74     396.8478    5278.8446    16117.588 
  320800   -254671.47     81.29387   -254590.17    397.29422     5476.644    16117.588 
  320900   -254673.65    82.743666   -254590.91    404.37957    5443.2249    16117.588 
  321000   -254673.01    81.563036   -254591.45    398.60967    5443.8538    16117.588 
  321100   -254674.04    80.195814   -254593.84    391.92787    5316.6624    16117.588 
  321200   -254676.73    81.094249   -254595.64    396.31864    5334.9107    16117.588 
  321300   -254676.96    79.473707   -254597.49    388.39883    5225.9036    16117.588 
  321400   -254677.26    82.103119   -254595.15    401.24913    5403.9581    16117.588 
  321500   -254676.16     84.48159   -254591.68    412.87304    5561.0108    16117.588 
  321600    -254675.9    84.380585   -254591.52    412.37941    5555.2376    16117.588 
  321700   -254672.69    80.886363    -254591.8    395.30268    5352.5473    16117.588 
  321800   -254674.23    81.888357   -254592.34    400.19956    5389.6035    16117.588 
  321900   -254673.01    80.043886   -254592.96    391.18537    5267.9643    16117.588 
  322000   -254671.87    79.907597   -254591.96    390.51931    5258.9023    16117.588 
  322100   -254671.71    82.275034   -254589.44     402.0893    5443.9566    16117.588 
  322200   -254672.46    83.400925   -254589.06    407.59168    5489.2124    16117.588 
  322300   -254673.84    80.606983   -254593.24    393.93731    5303.8826    16117.588 
  322400   -254676.61    81.534644   -254595.07    398.47091    5390.3968    16117.588 
  322500   -254676.74    83.009963   -254593.73      405.681    5501.3441    16117.588 
  322600    -254671.4     80.87539   -254590.52    395.24905    5321.9862    16117.588 
  322700      -254672    82.829278   -254589.17    404.79797    5447.3788    16117.588 
  322800   -254672.12    83.217784    -254588.9    406.69665    5477.1734    16117.588 
  322900   -254673.29    81.959455   -254591.33    400.54702    5393.9123    16117.588 
  323000   -254672.49    80.396013   -254592.09    392.90627    5348.2343    16117.588 
  323100   -254672.98    81.310933   -254591.67    397.37761     5423.354    16117.588 
  323200   -254670.68    80.287632   -254590.39    392.37659    5284.1519    16117.588 
  323300   -254672.81    82.787717   -254590.02    404.59485    5644.9713    16117.588 
  323400   -254672.85    81.965549   -254590.89     400.5768    5395.6953    16117.588 
  323500   -254672.85    81.681524   -254591.17    399.18874    5377.0792    16117.588 
  323600    -254672.5     81.52501   -254590.98    398.42383    5401.9961    16117.588 
  323700   -254670.29    81.083862    -254589.2    396.26788    5337.7169    16117.588 
  323800   -254669.41    83.028892   -254586.38    405.77351    5497.2214    16117.588 
  323900   -254671.36    83.198207   -254588.16    406.60097    5478.1639    16117.588 
  324000   -254673.27     81.12565   -254592.15    396.47211    5435.8745    16117.588 
  324100   -254675.53    83.543978   -254591.99     408.2908    5576.2794    16117.588 
  324200   -254671.54    81.655248   -254589.89    399.06032    5377.0195    16117.588 
  324300   -254671.19    84.705284   -254586.48    413.96626    5576.9019    16117.588 
  324400   -254669.33     83.57627   -254585.75    408.44862    5550.9483    16117.588 
  324500   -254668.98    82.464032   -254586.52    403.01296    5430.0418    16117.588 
  324600   -254670.68    83.227168   -254587.46    406.74251    5480.7936    16117.588 
  324700   -254672.21     82.40795   -254589.81    402.73888    5455.2346    16117.588 
  324800   -254673.97     82.16661    -254591.8    401.55942    5409.2862    16117.588 
  324900   -254673.43    81.507505   -254591.92    398.33828    5429.3139    16117.588 
  325000   -254674.95    80.173823   -254594.78     391.8204    5364.5849    16117.588 
  325100   -254677.13    80.056487   -254597.07    391.24696    5269.2102    16117.588 
  325200   -254673.61    79.018554   -254594.59    386.17444     5199.085    16117.588 
  325300   -254672.59    81.807625   -254590.78    399.80501    5384.5738    16117.588 
  325400   -254671.38    82.584984   -254588.79    403.60407    5478.3652    16117.588 
  325500   -254672.39    84.635845   -254587.75     413.6269    5597.3531    16117.588 
  325600   -254671.59    81.091629    -254590.5    396.30584    5363.4982    16117.588 
  325700   -254674.15    81.032425   -254593.12     396.0165    5334.2288    16117.588 
  325800   -254671.95    79.394445   -254592.55    388.01147    5221.1868    16117.588 
  325900    -254672.5    84.569555   -254587.93    413.30294    5671.8356    16117.588 
  326000   -254672.11    83.126179   -254588.98    406.24896    5516.4439    16117.588 
  326100   -254671.47     80.31053   -254591.16     392.4885    5382.4543    16117.588 
  326200   -254672.82    80.732177   -254592.09    394.54915    5349.9607    16117.588 
  326300   -254675.46    83.271962   -254592.19    406.96143    5522.9965    16117.588 
  326400   -254674.34     82.07835   -254592.26    401.12808    5399.4241    16117.588 
  326500   -254674.33     82.31242   -254592.02    402.27201    5452.6012    16117.588 
  326600    -254672.8    82.427612   -254590.37    402.83497    5424.1987    16117.588 
  326700   -254672.03    83.333642    -254588.7    407.26286     5486.115    16117.588 
  326800   -254669.35    80.163614   -254589.19     391.7705    5277.1993    16117.588 
  326900   -254672.62     82.04528   -254590.58    400.96646    5428.2963    16117.588 
  327000   -254673.29    80.531844   -254592.76    393.57009    5301.6793    16117.588 
  327100   -254675.77    82.710157   -254593.06     404.2158    5564.2277    16117.588 
  327200   -254673.01    82.551744   -254590.46    403.44162    5499.4593    16117.588 
  327300   -254673.58    84.093895   -254589.48    410.97832    5535.9786    16117.588 
  327400   -254674.37     81.98586   -254592.38    400.67607    5396.3313    16117.588 
  327500   -254675.44    80.740771    -254594.7    394.59115    5314.3194    16117.588 
  327600   -254674.04    81.142425   -254592.89    396.55408    5340.3613    16117.588 
  327700   -254672.53    82.040308   -254590.49    400.94216    5398.8095    16117.588 
  327800   -254671.09    84.225142   -254586.86    411.61974    5599.1057    16117.588 
  327900   -254666.85     84.87861   -254581.97    414.81333    5613.6959    16117.588 
  328000   -254670.49    84.405685   -254586.08    412.50208    5556.6516    16117.588 
  328100    -254672.2    83.109616   -254589.09    406.16802    5471.6825    16117.588 
  328200   -254672.46    80.557001   -254591.91    393.69304    5302.6592    16117.588 
  328300   -254672.18    79.213594   -254592.97    387.12763    5453.0554    16117.588 
  328400   -254669.74    80.045427    -254589.7    391.19291    5305.3055    16117.588 
  328500   -254671.46    83.780217   -254587.68    409.44533    5516.5629    16117.588 
  328600   -254674.07    84.633854   -254589.44    413.61718    5573.6683    16117.588 
  328700   -254672.37     80.81335   -254591.56    394.94585    5343.5847    16117.588 
  328800   -254673.37    78.909243   -254594.46    385.64022    5228.8193    16117.588 
  328900   -254675.09    77.545166   -254597.54    378.97379    5101.4905    16117.588 
  329000   -254677.12    81.560494   -254595.56    398.59725    5440.6109    16117.588 
  329100      -254676    83.235203   -254592.77    406.78178    5508.5069    16117.588 
  329200   -254672.39    80.227434   -254592.16     392.0824    5359.9794    16117.588 
  329300   -254673.96    83.826062   -254590.13    409.66939    5519.0746    16117.588 
  329400   -254672.43    82.953627   -254589.48    405.40567    5460.5929    16117.588 
  329500   -254673.03    79.998382   -254593.03    390.96299    5264.3997    16117.588 
  329600   -254673.25    78.633844   -254594.61    384.29431    5197.7151    16117.588 
  329700   -254675.31    83.272898   -254592.03      406.966    5480.8752    16117.588 
  329800   -254674.34    82.437148   -254591.91    402.88157    5516.6636    16117.588 
  329900   -254673.16    81.225829   -254591.94    396.96169    5376.2991    16117.588 
  330000   -254674.55     82.84001   -254591.71    404.85041    5452.5635    16117.588 
  330100    -254672.6    80.075297   -254592.52    391.33889    5372.9886    16117.588 
  330200   -254673.09    80.890463    -254592.2    395.32271    5322.9965    16117.588 
  330300   -254673.43     82.19209   -254591.24    401.68394    5558.0327    16117.588 
  330400   -254673.44     84.78222   -254588.65    414.34226    5666.7811    16117.588 
  330500   -254671.51    84.416822   -254587.09    412.55651    5554.7813    16117.588 
  330600   -254671.78    80.336465   -254591.45    392.61525    5285.9555    16117.588 
  330700   -254674.54    82.251579   -254592.29    401.97467    5454.2476    16117.588 
  330800   -254673.35    80.473275   -254592.88    393.28386    5332.7705    16117.588 
  330900   -254674.08    80.465203   -254593.61    393.24441    5319.3493    16117.588 
  331000   -254670.33    78.953297   -254591.38    385.85552    5192.7442    16117.588 
  331100   -254671.61    83.793834   -254587.81    409.51188     5514.406    16117.588 
  331200   -254669.77    81.755363   -254588.01     399.5496    5432.6385    16117.588 
  331300   -254671.24    81.066855   -254590.18    396.18476    5333.0078    16117.588 
  331400   -254674.72    81.065252   -254593.65    396.17693     5461.044    16117.588 
  331500   -254674.29    80.977434   -254593.31    395.74775    5327.9578    16117.588 
  331600   -254676.56     83.76658    -254592.8    409.37869    5513.4296    16117.588 
  331700   -254670.49    79.172506   -254591.32    386.92682    5206.9421    16117.588 
  331800   -254670.83    83.018191   -254587.81    405.72121    5456.6793    16117.588 
  331900   -254671.98     84.23751   -254587.74    411.68019    5629.8488    16117.588 
  332000   -254671.03    81.458571   -254589.57    398.09913    5382.2247    16117.588 
  332100    -254672.4    80.986851   -254591.41    395.79377    5358.8034    16117.588 
  332200   -254674.43     83.41232   -254591.01    407.64737    5487.4094    16117.588 
  332300   -254673.02    82.176686   -254590.85    401.60866    5402.5514    16117.588 
  332400   -254672.54    84.306735   -254588.23     412.0185    5545.7981    16117.588 
  332500   -254669.76    83.313052   -254586.45    407.16224    5531.8825    16117.588 
  332600   -254671.09     83.51272   -254587.57    408.13804    5492.1221    16117.588 
  332700   -254673.84    81.967239   -254591.87    400.58507    5525.6026    16117.588 
  332800   -254676.66    83.077141   -254593.59    406.00931    5491.9153    16117.588 
  332900   -254675.36    81.905844   -254593.45    400.28502    5442.6061    16117.588 
  333000   -254675.01     82.44954   -254592.56    402.94213    5563.2373    16117.588 
  333100   -254675.75    86.405358   -254589.34    422.27476     5687.357    16117.588 
  333200    -254673.6    83.797001   -254589.81    409.52736    5514.4284    16117.588 
  333300   -254674.88    80.954773   -254593.93    395.63701    5367.4095    16117.588 
  333400   -254676.03    81.617781   -254594.42    398.87722    5393.9503    16117.588 
  333500   -254674.86    82.471605   -254592.39    403.04997    5427.7946    16117.588 
  333600   -254673.19    82.622645   -254590.57    403.78812    5436.6993    16117.588 
  333700   -254671.42     82.64963   -254588.77       403.92    5472.2787    16117.588 
  333800   -254672.84    82.539666    -254590.3    403.38259    5428.5707    16117.588 
  333900   -254675.09     80.93936   -254594.15    395.56168    5320.5694    16117.588 
  334000   -254675.26    79.990178   -254595.27     390.9229    5262.9062    16117.588 
  334100   -254673.64     81.67054   -254591.97    399.13505    5397.2674    16117.588 
  334200   -254671.13    81.991987   -254589.14    400.70601    5395.9904    16117.588 
  334300   -254673.27    85.220288   -254588.05    416.48316    5609.0323    16117.588 
  334400   -254672.46    81.854393   -254590.61    400.03357    5417.4987    16117.588 
  334500   -254673.81    80.560976   -254593.24    393.71246    5357.5416    16117.588 
  334600   -254673.05     80.15937   -254592.89    391.74976    5298.9949    16117.588 
  334700   -254672.31    81.220808   -254591.09    396.93715    5345.5853    16117.588 
  334800   -254673.27    84.491494   -254588.78    412.92144    5663.6529    16117.588 
  334900   -254671.49    82.192768    -254589.3    401.68726    5460.7026    16117.588 
  335000   -254674.12    79.168118   -254594.96    386.90538    5209.4825    16117.588 
  335100   -254676.69    82.441423   -254594.24    402.90246    5426.3438    16117.588 
  335200   -254674.55    82.909592   -254591.64    405.19047    5509.9764    16117.588 
  335300   -254671.07    81.340404   -254589.73    397.52164    5351.3175    16117.588 
  335400   -254671.02    82.128344   -254588.89    401.37241    5551.0572    16117.588 
  335500   -254670.63    82.881948   -254587.75    405.05537    5456.9839    16117.588 
  335600   -254669.72    83.478862   -254586.24    407.97257     5495.655    16117.588 
  335700   -254669.28    81.707687   -254587.58     399.3166    5377.9138    16117.588 
  335800   -254671.26    80.693509   -254590.56    394.36017    5310.1902    16117.588 
  335900   -254673.25    80.517067   -254592.73    393.49788    5365.6291    16117.588 
  336000    -254673.3    82.074672   -254591.23     401.1101    5508.2091    16117.588 
  336100   -254671.87     82.38934   -254589.48    402.64793    5422.1828    16117.588 
  336200   -254668.74    79.296255   -254589.45     387.5316    5216.4768    16117.588 
  336300   -254671.44     82.16626   -254589.27    401.55771    5407.6959    16117.588 
  336400   -254671.53     81.67443   -254589.86    399.15407    5397.0282    16117.588 
  336500   -254673.64    81.280996   -254592.36     397.2313    5393.0246    16117.588 
  336600   -254676.31    80.873721   -254595.44    395.24089    5353.7814    16117.588 
  336700   -254676.63    81.630195      -254595    398.93788    5407.0983    16117.588 
  336800   -254673.99     83.15079   -254590.84    406.36924     5714.194    16117.588 
  336900   -254672.05    82.173294   -254589.88    401.59208    5501.7403    16117.588 
  337000      -254673    81.290675   -254591.71     397.2786    5470.4963    16117.588 
  337100   -254673.93    81.140954   -254592.79     396.5469     5366.556    16117.588 
  337200   -254676.03    83.406586   -254592.62    407.61935    5488.1227    16117.588 
  337300   -254673.78    81.284463    -254592.5    397.24825    5347.4347    16117.588 
  337400   -254672.53    82.270015   -254590.26    402.06477    5435.2128    16117.588 
  337500   -254669.54    84.518997   -254585.02    413.05585    5561.6163    16117.588 
  337600   -254668.91    83.147708   -254585.76    406.35418    5467.6524    16117.588 
  337700   -254671.62    83.234059   -254588.38    406.77619    5507.2434    16117.588 
  337800   -254676.43    84.805402   -254591.62    414.45555    5581.7414    16117.588 
  337900   -254673.65    80.017383   -254593.63    391.05585    5289.4202    16117.588 
  338000   -254675.51    82.523742   -254592.99    403.30477    5430.4407    16117.588 
  338100   -254671.94    82.358856   -254589.58    402.49895      5418.32    16117.588 
  338200   -254669.89    82.272801   -254587.61    402.07839    5410.7504    16117.588 
  338300   -254668.16    84.054947    -254584.1    410.78798    5567.1696    16117.588 
  338400   -254666.73    84.663959   -254582.06     413.7643     5599.823    16117.588 
  338500      -254668    81.660626   -254586.34    399.08661    5400.2522    16117.588 
  338600   -254669.19    80.823377   -254588.36    394.99486    5316.1202    16117.588 
  338700   -254670.34     81.73299   -254588.61    399.44026     5413.549    16117.588 
  338800   -254670.55    80.622569   -254589.93    394.01348    5302.4102    16117.588 
  338900   -254672.61    80.758108   -254591.86    394.67588    5335.8809    16117.588 
  339000   -254672.44    78.659609   -254593.78    384.42023     5173.376    16117.588 
  339100    -254671.7      79.2455   -254592.46    387.28356    5210.5421    16117.588 
  339200   -254672.87    84.562766   -254588.31    413.26976    5563.7548    16117.588 
  339300   -254672.82    82.999856   -254589.82     405.6316    5460.2074    16117.588 
  339400    -254671.7    80.163736   -254591.54     391.7711    5341.5551    16117.588 
  339500   -254673.51    80.697166   -254592.81    394.37805     5356.692    16117.588 
  339600   -254674.38    85.495897   -254588.88     417.8301    5626.5161    16117.588 
  339700   -254670.71    83.458306   -254587.25    407.87211      5489.24    16117.588 
  339800   -254672.26    81.494898   -254590.77    398.27667    5359.8549    16117.588 
  339900   -254673.27    81.190019   -254592.08    396.78668    5341.4726    16117.588 
  340000    -254671.6    80.325472   -254591.27    392.56153    5381.6617    16117.588 
  340100   -254671.96    83.132828   -254588.83    406.28146    5470.0662    16117.588 
  340200   -254671.15    82.566908   -254588.59    403.51573    5472.3127    16117.588 
  340300   -254673.64     83.41685   -254590.22    407.66951    5538.1877    16117.588 
  340400   -254672.41    81.754276   -254590.65    399.54429    5379.4851    16117.588 
  340500   -254672.12    82.675339   -254589.44    404.04564    5440.7239    16117.588 
  340600   -254671.96    84.489163   -254587.47    412.91005    5560.2239    16117.588 
  340700   -254671.28     82.18805   -254589.09     401.6642    5435.9623    16117.588 
  340800   -254673.28     79.71608   -254593.56    389.58334    5244.9508    16117.588 
  340900    -254675.3     80.67729   -254594.62    394.28091    5308.5518    16117.588 
  341000   -254674.15    82.039082   -254592.11    400.93617     5399.368    16117.588 
  341100    -254673.2    83.637177   -254589.56    408.74628     5505.535    16117.588 
  341200   -254672.58    83.162269   -254589.42    406.42534    5472.3596    16117.588 
  341300   -254672.81    82.524837   -254590.28    403.31012    5432.2686    16117.588 
  341400   -254672.34    81.114577   -254591.22    396.41799    5337.1841    16117.588 
  341500   -254673.07    81.988081   -254591.08    400.68692    5396.2358    16117.588 
  341600   -254672.61    83.880999   -254588.73    409.93787    5520.2667    16117.588 
  341700   -254670.92    83.939431   -254586.98    410.22344    5552.0694    16117.588 
  341800    -254675.3     83.93182   -254591.37    410.18624    5548.3155    16117.588 
  341900   -254675.68    82.547346   -254593.13    403.42013    5432.5511    16117.588 
  342000    -254674.3    80.935147   -254593.37    395.54109    5374.5195    16117.588 
  342100    -254674.5    82.877449   -254591.62    405.03339     5454.442    16117.588 
  342200   -254671.97    83.196922   -254588.77    406.59469    5473.7134    16117.588 
  342300   -254670.24    83.613758   -254586.63    408.63183    5568.5308    16117.588 
  342400   -254673.08    83.891106   -254589.19    409.98726     5725.938    16117.588 
  342500   -254675.13    81.885758   -254593.24    400.18685    5415.5172    16117.588 
  342600   -254674.97    81.034702   -254593.93    396.02763    5372.2935    16117.588 
  342700   -254674.49    81.324158   -254593.17    397.44224    5394.7406    16117.588 
  342800    -254673.6    83.281112   -254590.32    407.00614    5503.2311    16117.588 
  342900   -254670.95    83.337166   -254587.62    407.28008    5515.6097    16117.588 
  343000   -254673.49    85.743036   -254587.74     419.0379     5643.809    16117.588 
  343100   -254672.79    81.191501    -254591.6    396.79393    5338.5231    16117.588 
  343200   -254675.48    82.912375   -254592.56    405.20407    5560.1006    16117.588 
  343300   -254675.01    81.535742   -254593.47    398.47628    5365.9764    16117.588 
  343400   -254673.86    80.346315   -254593.52    392.66339     5285.997    16117.588 
  343500   -254672.86     82.05839   -254590.81    401.03053    5399.5111    16117.588 
  343600   -254669.19    81.171744   -254588.01    396.69737    5340.6032    16117.588 
  343700   -254670.45    82.606536   -254587.84     403.7094    5437.5677    16117.588 
  343800   -254671.27    80.780298   -254590.49    394.78432      5316.97    16117.588 
  343900   -254675.73    83.619947   -254592.11    408.66207    5540.7753    16117.588 
  344000   -254675.33    82.461892   -254592.87     403.0025    5428.2267    16117.588 
  344100   -254675.39    82.019911   -254593.37    400.84248    5398.3245    16117.588 
  344200    -254673.6    82.145631   -254591.45    401.45689    5466.8937    16117.588 
  344300    -254672.8    85.271548   -254587.53    416.73367    5611.2001    16117.588 
  344400   -254672.52    84.411166   -254588.11    412.52887    5555.5856    16117.588 
  344500    -254674.9    81.541559   -254593.35    398.50471      5366.28    16117.588 
  344600      -254675    81.476969   -254593.52    398.18905    5361.2862    16117.588 
  344700   -254673.84     80.79733   -254593.05    394.86756    5316.1666    16117.588 
  344800   -254671.36    81.328445   -254590.04    397.46319    5351.7165    16117.588 
  344900   -254672.73    84.566421   -254588.17    413.28762    5615.0582    16117.588 
  345000   -254671.08    81.148296   -254589.93    396.58278     5339.438    16117.588 
  345100   -254675.06     83.26722   -254591.79    406.93825    5542.6859    16117.588 
  345200   -254674.21    81.335976   -254592.87        397.5    5389.0254    16117.588 
  345300   -254675.12    82.108809   -254593.01    401.27694    5526.1424    16117.588 
  345400    -254674.2    82.944005   -254591.26    405.35865    5562.0238    16117.588 
  345500   -254673.52    85.171258   -254588.35    416.24354    5716.6991    16117.588 
  345600   -254672.22    84.048673   -254588.17    410.75732    5530.9463    16117.588 
  345700   -254673.16    81.200655   -254591.96    396.83866    5341.3266    16117.588 
  345800   -254673.07    79.949269   -254593.12    390.72297    5351.7395    16117.588 
  345900   -254673.11    82.723105   -254590.39    404.27908    5442.0587    16117.588 
  346000   -254672.62    83.144608   -254589.47    406.33902    5470.2071    16117.588 
  346100   -254672.32    81.759917   -254590.56    399.57185    5377.2248    16117.588 
  346200   -254673.18    82.708539   -254590.47     404.2079    5441.8616    16117.588 
  346300   -254674.05    83.726102   -254590.32    409.18087      5508.17    16117.588 
  346400   -254670.98    80.070865    -254590.9    391.31722    5366.9056    16117.588 
  346500   -254672.05    79.180302   -254592.87    386.96492    5207.5756    16117.588 
  346600   -254671.04    79.786305   -254591.25    389.92654    5349.4286    16117.588 
  346700   -254671.45    83.216056   -254588.23     406.6882    5522.5292    16117.588 
  346800   -254673.24    83.554025   -254589.69     408.3399    5499.0416    16117.588 
  346900    -254675.6    83.054259   -254592.55    405.89748    5466.5619    16117.588 
  347000   -254674.84    81.281259   -254593.56    397.23259    5346.8906    16117.588 
  347100    -254674.4    80.447062   -254593.95    393.15575    5293.8781    16117.588 
  347200   -254674.14    82.806906   -254591.33    404.68863    5568.9493    16117.588 
  347300   -254671.58      83.4586   -254588.12    407.87355    5581.6489    16117.588 
  347400   -254670.62    80.968334   -254589.65    395.70328     5355.808    16117.588 
  347500   -254673.26    79.499799   -254593.76    388.52635    5286.3787    16117.588 
  347600   -254672.64    76.472228   -254596.17     373.7302    5029.6388    16117.588 
  347700   -254672.52    79.056906   -254593.47    386.36187    5199.1702    16117.588 
  347800   -254673.38    81.580383    -254591.8    398.69445    5443.7342    16117.588 
  347900   -254674.97    82.864175   -254592.11    404.96851    5477.5061    16117.588 
  348000   -254674.03    79.149044   -254594.88    386.81216    5205.2713    16117.588 
  348100   -254674.97    77.477062   -254597.49    378.64096    5094.2121    16117.588 
  348200   -254673.55    79.848798    -254593.7    390.23195    5342.3484    16117.588 
  348300   -254673.07    81.994371   -254591.07    400.71766    5423.8215    16117.588 
  348400   -254672.42    81.240983   -254591.17    397.03575    5345.7733    16117.588 
  348500   -254674.38    82.152292   -254592.23    401.48944    5405.9409    16117.588 
  348600   -254673.84    80.092838   -254593.75    391.42461    5293.7304    16117.588 
  348700   -254673.49    79.428535   -254594.06    388.17807    5225.1772    16117.588 
  348800   -254674.17    83.315149   -254590.86    407.17248    5509.6925    16117.588 
  348900    -254671.8    82.855548   -254588.94    404.92635    5474.8478    16117.588 
  349000   -254673.89    82.755328   -254591.14    404.43656    5444.2091    16117.588 
  349100   -254675.72    80.651011   -254595.07    394.15248    5304.4437    16117.588 
  349200    -254673.2    79.676837   -254593.52    389.39156     5240.191    16117.588 
  349300   -254673.37      82.5937   -254590.78    403.64666     5471.448    16117.588 
  349400   -254669.68    80.687323   -254588.99    394.32994    5307.7128    16117.588 
  349500   -254671.62    82.469135   -254589.15     403.0379    5462.3755    16117.588 
  349600   -254670.52    79.975805   -254590.55    390.85266    5254.2698    16117.588 
  349700   -254672.35    78.831104   -254593.52    385.25834    5216.9003    16117.588 
  349800   -254669.96    77.518875   -254592.44     378.8453     5098.771    16117.588 
  349900   -254669.26    80.639173   -254588.62    394.09463    5304.6471    16117.588 
  350000   -254669.25    81.239535   -254588.01    397.02868    5344.1708    16117.588 
  350100   -254670.32    82.074182   -254588.25    401.10771    5503.3454    16117.588 
  350200    -254673.1    81.875763   -254591.23    400.13801    5411.5867    16117.588 
  350300   -254672.68    79.472531   -254593.21    388.39309    5227.5037    16117.588 
  350400   -254673.27    82.625774   -254590.65    403.80341    5436.3568    16117.588 
  350500   -254670.06    81.999093   -254588.06    400.74074    5450.9246    16117.588 
  350600   -254671.74    87.831824   -254583.91    429.24609    5782.4152    16117.588 
  350700   -254671.94    84.370753   -254587.57    412.33137    5551.7088    16117.588 
  350800   -254673.22    81.892609   -254591.33    400.22034    5460.0108    16117.588 
  350900    -254673.6    80.801243    -254592.8    394.88668    5314.2324    16117.588 
  351000   -254674.47    81.872665   -254592.59    400.12287    5386.3558    16117.588 
  351100   -254669.88    80.219522   -254589.66    392.04373    5306.8499    16117.588 
  351200   -254669.06    81.813231   -254587.24     399.8324    5443.1228    16117.588 
  351300   -254669.49    82.548767   -254586.94    403.42707     5472.907    16117.588 
  351400   -254669.12    79.394242   -254589.72    388.01048    5221.1839    16117.588 
  351500    -254669.2    78.168959   -254591.03    382.02235    5140.4487    16117.588 
  351600   -254671.42    81.122987   -254590.29    396.45909    5335.6641    16117.588 
  351700   -254669.01    80.006985      -254589    391.00504     5286.988    16117.588 
  351800   -254671.18    83.563427   -254587.62    408.38585    5497.1132    16117.588 
  351900   -254669.11    81.320753   -254587.79     397.4256    5349.0466    16117.588 
  352000   -254667.61    83.018258   -254584.59    405.72154    5540.0977    16117.588 
  352100    -254668.5    84.430376   -254584.07    412.62275    5555.2542    16117.588 
  352200   -254669.19    81.443901   -254587.74    398.02744    5358.1588    16117.588 
  352300   -254672.41    83.839038   -254588.57     409.7328    5516.1197    16117.588 
  352400   -254671.57    81.874333    -254589.7    400.13102    5384.7537    16117.588 
  352500   -254673.06    81.316165   -254591.74    397.40318    5419.3694    16117.588 
  352600   -254673.09    80.999694   -254592.09    395.85654    5328.4311    16117.588 
  352700    -254675.5    83.824381   -254591.67    409.66117    5614.7448    16117.588 
  352800   -254673.04    80.725112   -254592.31    394.51462    5311.2544    16117.588 
  352900   -254675.34    82.200875   -254593.14    401.72687    5409.5429    16117.588 
  353000   -254675.64    80.524551   -254595.11    393.53445    5297.3489    16117.588 
  353100      -254674    78.576449   -254595.42    384.01381    5167.4748    16117.588 
  353200   -254673.92    82.601337   -254591.32    403.68399    5502.4079    16117.588 
  353300   -254670.93    81.671954   -254589.26    399.14197     5436.749    16117.588 
  353400   -254668.81    81.163082   -254587.65    396.65504     5363.377    16117.588 
  353500   -254669.14    82.145254      -254587    401.45505    5443.2159    16117.588 
  353600   -254670.01    80.859741   -254589.15    395.17257    5483.2837    16117.588 
  353700   -254673.75     80.44762   -254593.31    393.15848    5291.3104    16117.588 
  353800   -254674.72    80.025856    -254594.7    391.09726    5303.3254    16117.588 
  353900   -254674.33    80.669745   -254593.66    394.24403    5308.1249    16117.588 
  354000   -254673.66    83.785316   -254589.88    409.47025    5580.4577    16117.588 
  354100   -254671.12    81.655486   -254589.46    399.06149    5411.7241    16117.588 
  354200    -254673.3    82.757724   -254590.55    404.44827    5445.0783    16117.588 
  354300   -254673.54    81.722265   -254591.82    399.38784     5375.099    16117.588 
  354400   -254674.36    82.137986   -254592.23    401.41953    5427.7496    16117.588 
  354500   -254671.85    81.392533   -254590.46     397.7764    5390.7014    16117.588 
  354600   -254670.16    83.560684    -254586.6    408.37245     5494.147    16117.588 
  354700   -254671.85    83.910478   -254587.94    410.08194    5571.6243    16117.588 
  354800   -254674.16    83.607657   -254590.56    408.60201    5499.3527    16117.588 
  354900    -254674.4     82.89561   -254591.51    405.12214    5453.6215    16117.588 
  355000   -254676.64    85.224956   -254591.42    416.50597    5607.5877    16117.588 
  355100   -254674.47    82.655367   -254591.82    403.94804    5491.1965    16117.588 
  355200   -254673.06    81.179572   -254591.88    396.73563    5369.9251    16117.588 
  355300   -254674.03    83.015838   -254591.01    405.70971    5460.8544    16117.588 
  355400   -254672.52     81.45082   -254591.07    398.06126    5388.0892    16117.588 
  355500   -254674.75    84.474095   -254590.28    412.83641    5557.3196    16117.588 
  355600   -254674.48    82.993985   -254591.49    405.60291    5459.8218    16117.588 
  355700   -254674.57    79.720249   -254594.85    389.60372    5241.7252    16117.588 
  355800   -254673.53    78.889036   -254594.64    385.54147    5184.9968    16117.588 
  355900    -254674.7    81.193107   -254593.51    396.80178    5338.8008    16117.588 
  356000   -254673.49    80.563065   -254592.93    393.72267    5297.4367    16117.588 
  356100   -254675.28    82.588961   -254592.69     403.6235     5507.613    16117.588 
  356200   -254673.06    79.942454   -254593.12    390.68967     5252.271    16117.588 
  356300   -254672.98    81.564024   -254591.42     398.6145    5398.4056    16117.588 
  356400    -254669.2     80.69819   -254588.51    394.38305    5306.5715    16117.588 
  356500   -254669.76    81.930711   -254587.83    400.40654    5382.7297    16117.588 
  356600   -254674.23    83.082456   -254591.15    406.03528    5487.7684    16117.588 
  356700   -254676.12    83.045091   -254593.07    405.85268    5462.3516    16117.588 
  356800   -254676.06    82.528551   -254593.53    403.32827    5539.9155    16117.588 
  356900   -254674.12    81.051194   -254593.07    396.10823    5367.7293    16117.588 
  357000   -254674.47    83.614095   -254590.86    408.63347    5497.9427    16117.588 
  357100   -254671.27      82.1013   -254589.16    401.24024    5399.1531    16117.588 
  357200   -254674.68    85.162779   -254589.52    416.20211    5638.6862    16117.588 
  357300   -254674.82    81.901723   -254592.92    400.26488    5385.7999    16117.588 
  357400   -254674.47    80.859852   -254593.61    395.17311    5317.1134    16117.588 
  357500   -254671.22    80.990881   -254590.23    395.81347    5322.6563    16117.588 
  357600   -254671.35    83.627607   -254587.72    408.69951    5499.4382    16117.588 
  357700   -254673.55    84.763196   -254588.79    414.24929    5575.0255    16117.588 
  357800   -254674.58    83.990594   -254590.59    410.47347    5523.3228    16117.588 
  357900   -254674.72    82.234149   -254592.48    401.88949    5484.7347    16117.588 
  358000   -254676.36    81.066614   -254595.29    396.18359    5330.0164    16117.588 
  358100    -254674.9    80.054966   -254594.84    391.23953    5264.2837    16117.588 
  358200   -254674.32    83.394973   -254590.93    407.56259    5511.5356    16117.588 
  358300   -254674.52      84.8589   -254589.66      414.717    5613.4152    16117.588 
  358400   -254672.97    81.856125   -254591.12    400.04203    5382.1945    16117.588 
  358500    -254674.8    82.130505   -254592.67    401.38297    5450.0963    16117.588 
  358600   -254672.32    80.307707   -254592.01     392.4747    5281.6725    16117.588 
  358700   -254672.47    84.041887   -254588.43    410.72415    5529.9524    16117.588 
  358800   -254670.23    83.490727   -254586.74    408.03056    5492.7121    16117.588 
  358900   -254672.08    82.659876   -254589.42    403.97008    5438.4004    16117.588 
  359000   -254670.18    78.690785   -254591.49    384.57259    5174.3833    16117.588 
  359100   -254671.72    80.746971   -254590.97    394.62145    5357.3282    16117.588 
  359200   -254670.21    81.177311   -254589.03    396.72458    5338.2881    16117.588 
  359300   -254671.54    83.446543    -254588.1    407.81462    5490.1082    16117.588 
  359400   -254670.36    82.157501   -254588.21     401.5149    5403.3666    16117.588 
  359500   -254673.56    83.373357   -254590.18    407.45695    5483.9685    16117.588 
  359600   -254676.65    82.853901   -254593.79     404.9183    5475.6855    16117.588 
  359700   -254674.79    80.393712    -254594.4    392.89502    5312.6881    16117.588 
  359800   -254671.83    79.308659   -254592.53    387.59222    5262.6838    16117.588 
  359900   -254672.49    83.938199   -254588.55    410.21742    5523.3485    16117.588 
  360000   -254672.46    83.495342   -254588.97    408.05311    5493.9173    16117.588 
  360100   -254672.25    81.407576   -254590.84    397.84991    5351.0684    16117.588 
  360200   -254671.89    81.405757   -254590.48    397.84102    5382.8049    16117.588 
  360300   -254672.97    82.191738   -254590.78    401.68222    5407.7813    16117.588 
  360400   -254669.28    82.506345   -254586.78    403.21975    5484.8447    16117.588 
  360500   -254667.31     83.33412   -254583.97     407.2652    5520.4545    16117.588 
  360600   -254668.53    82.817657   -254585.71    404.74117    5447.3928    16117.588 
  360700   -254671.67    84.817183   -254586.85    414.51313     5582.218    16117.588 
  360800   -254671.33    80.667622   -254590.66    394.23366    5350.5494    16117.588 
  360900   -254672.36      80.9331   -254591.43    395.53109    5321.3476    16117.588 
  361000      -254672    82.362471   -254589.64    402.51661    5418.8948    16117.588 
  361100   -254672.83    85.150036   -254587.68    416.13983    5604.6727    16117.588 
  361200   -254673.84    83.396688   -254590.44    407.57098     5487.827    16117.588 
  361300   -254673.15     79.35583   -254593.79    387.82275    5252.0392    16117.588 
  361400   -254673.56    81.068675   -254592.49    396.19366    5332.6685    16117.588 
  361500   -254672.85    82.971094   -254589.87    405.49104    5458.3258    16117.588 
  361600      -254672    82.860778   -254589.14    404.95191    5449.1553    16117.588 
  361700   -254672.65    80.650075      -254592    394.14791    5303.0355    16117.588 
  361800   -254674.88    79.400478   -254595.48    388.04096    5220.7178    16117.588 
  361900   -254672.22    78.591019   -254593.63    384.08502    5166.0076    16117.588 
  362000   -254670.39    79.081027   -254591.31    386.47975    5331.5721    16117.588 
  362100   -254670.33     80.72911    -254589.6    394.53416    5308.5378    16117.588 
  362200   -254673.88    83.950563   -254589.93    410.27784     5523.651    16117.588 
  362300   -254671.86    79.568819   -254592.29    388.86366    5232.1782    16117.588 
  362400    -254674.2    81.542679   -254592.66    398.51018    5362.7196    16117.588 
  362500   -254672.38      79.4324   -254592.95    388.19696    5224.6871    16117.588 
  362600   -254673.14    81.293421   -254591.85    397.29203    5348.0481    16117.588 
  362700   -254671.67    82.106406   -254589.56    401.26519    5401.5765    16117.588 
  362800   -254672.12    83.250571   -254588.87    406.85688    5477.4749    16117.588 
  362900   -254672.76     81.46919   -254591.29    398.15103    5358.3494    16117.588 
  363000   -254675.49    80.785017   -254594.71    394.80738    5379.0097    16117.588 
  363100   -254674.74    80.109362   -254594.63    391.50537    5267.6324    16117.588 
  363200   -254673.72    81.145059   -254592.58    396.56696    5389.7861    16117.588 
  363300   -254671.89    81.665498   -254590.22    399.11041    5370.2286    16117.588 
  363400   -254671.77     84.32794   -254587.44    412.12213    5546.7275    16117.588 
  363500   -254669.81    84.086935   -254585.73    410.94431    5530.3912    16117.588 
  363600   -254671.98    84.522521   -254587.46    413.07307    5559.1061    16117.588 
  363700   -254675.95    84.293412   -254591.66    411.95339    5542.8752    16117.588 
  363800   -254671.36    78.261407   -254593.09    382.47416    5169.2013    16117.588 
  363900   -254669.44    78.722381   -254590.72      384.727    5238.1813    16117.588 
  364000   -254669.62    81.245384   -254588.37    397.05726    5341.0563    16117.588 
  364100   -254671.15    81.669756   -254589.49    399.13122    5368.0164    16117.588 
  364200   -254674.18      83.1734   -254591.01    406.47974    5500.0846    16117.588 
  364300   -254674.78     82.07166   -254592.71    401.09538    5393.8975    16117.588 
  364400   -254678.04    79.986505   -254598.05    390.90495    5291.4765    16117.588 
  364500   -254677.59    79.248215   -254598.34    387.29682    5286.6142    16117.588 
  364600   -254676.04    81.633614   -254594.41    398.95459    5365.4734    16117.588 
  364700   -254673.96    81.892618   -254592.07    400.22038    5381.7714    16117.588 
  364800   -254673.07    81.952117   -254591.12    400.51116    5497.0418    16117.588 
  364900   -254672.48    82.132459   -254590.35    401.39252    5399.8773    16117.588 
  365000   -254675.77    83.158245   -254592.61    406.40567     5619.468    16117.588 
  365100   -254675.78    79.942147   -254595.84    390.68817    5325.1082    16117.588 
  365200    -254676.3     81.75696   -254594.54     399.5574    5372.9607    16117.588 
  365300   -254677.51    85.807132   -254591.71    419.35114    5667.0082    16117.588 
  365400   -254672.44    79.959272   -254592.48    390.77186    5493.6972    16117.588 
  365500   -254674.91    78.800061   -254596.11    385.10663    5209.6243    16117.588 
  365600   -254676.83    77.634303    -254599.2    379.40941    5251.1376    16117.588 
  365700   -254675.34     79.70277   -254595.63     389.5183     5316.463    16117.588 
  365800   -254673.41     80.50269   -254592.91    393.42762    5292.1139    16117.588 
  365900   -254674.91     83.70512    -254591.2    409.07833    5532.5293    16117.588 
  366000   -254672.93    81.300138   -254591.63    397.32485    5381.6159    16117.588 
  366100   -254674.14    80.401398   -254593.74    392.93258    5285.4216    16117.588 
  366200   -254678.14    81.023002   -254597.11    395.97045    5326.4221    16117.588 
  366300   -254676.36    79.402713   -254596.96    388.05187    5443.8891    16117.588 
  366400   -254675.23    82.209357   -254593.02    401.76833    5404.3437    16117.588 
  366500   -254673.94     82.32974   -254591.61    402.35665    5410.7544    16117.588 
  366600   -254673.93    81.173673   -254592.76     396.7068     5403.558    16117.588 
  366700   -254673.38    81.719703   -254591.66    399.37532    5372.0158    16117.588 
  366800   -254671.63    82.518688   -254589.12    403.28007    5515.9036    16117.588 
  366900   -254672.94    85.809527   -254587.13    419.36285     5667.728    16117.588 
  367000   -254674.32    82.480073   -254591.84    403.09135    5422.9309    16117.588 
  367100   -254673.14    79.543548    -254593.6    388.74016    5227.0058    16117.588 
  367200   -254672.98    80.980924   -254591.99    395.76481    5322.0907    16117.588 
  367300   -254672.13    82.157828   -254589.97     401.5165    5399.9937    16117.588 
  367400   -254674.78    85.214258   -254589.56    416.45369    5642.9949    16117.588 
  367500   -254674.05    80.499423   -254593.55    393.41165    5359.1288    16117.588 
  367600   -254675.74    80.016028   -254595.72    391.04923    5300.4076    16117.588 
  367700   -254675.23    80.543712   -254594.68    393.62809    5294.5801    16117.588 
  367800    -254671.8    79.647692   -254592.15    389.24912    5235.9672    16117.588 
  367900   -254671.65    82.984838   -254588.66    405.55821     5484.793    16117.588 
  368000   -254671.07    82.247706   -254588.82    401.95575    5535.3566    16117.588 
  368100   -254671.03    81.051878   -254589.97    396.11157    5380.4276    16117.588 
  368200   -254672.72    83.084663   -254589.64    406.04607    5487.3666    16117.588 
  368300   -254671.48    84.388779   -254587.09    412.41946    5549.6357    16117.588 
  368400   -254669.82    85.227376   -254584.59     416.5178    5606.0792    16117.588 
  368500   -254668.25    79.148199    -254589.1    386.80803    5228.0478    16117.588 
  368600    -254669.7    79.469287   -254590.23    388.37723    5219.0818    16117.588 
  368700   -254667.82    79.957912   -254587.86    390.76521    5280.2846    16117.588 
  368800   -254668.09    82.821052   -254585.27    404.75776    5488.9497    16117.588 
  368900   -254668.82    83.194333   -254585.62    406.58204    5529.9412    16117.588 
  369000    -254671.5    83.140149   -254588.36    406.31724    5533.7342    16117.588 
  369100    -254670.5    81.153983   -254589.35    396.61057    5363.5413    16117.588 
  369200   -254672.44    83.062998   -254589.37    405.94019    5462.0235    16117.588 
  369300   -254673.74    84.430658   -254589.31    412.62413    5589.9573    16117.588 
  369400   -254670.44    83.075735   -254587.36    406.00244    5489.8328    16117.588 
  369500   -254668.94    83.671156   -254585.27    408.91234     5503.499    16117.588 
  369600   -254672.59    85.170742   -254587.42    416.24102    5602.5832    16117.588 
  369700   -254674.45    83.256085    -254591.2    406.88383    5525.3316    16117.588 
  369800   -254673.66     81.97233   -254591.68    400.60995    5392.1074    16117.588 
  369900   -254672.96    82.457054    -254590.5    402.97886    5423.7777    16117.588 
  370000   -254672.99    84.720159   -254588.27    414.03896    5573.0288    16117.588 
  370100   -254672.54    83.291045   -254589.25    407.05469    5507.8758    16117.588 
  370200   -254675.33    81.942256   -254593.39    400.46297    5432.2256    16117.588 
  370300   -254675.97    80.686587   -254595.28    394.32634    5405.8722    16117.588 
  370400   -254675.46    81.500977   -254593.95    398.30638    5361.7089    16117.588 
  370500   -254671.62    80.239674   -254591.38    392.14222    5276.1918    16117.588 
  370600   -254670.14    81.303224   -254588.84    397.33993    5346.1008    16117.588 
  370700   -254674.54    85.544478      -254589    418.06752    5676.4315    16117.588 
  370800   -254674.65    83.658667   -254590.99    408.85131    5530.4863    16117.588 
  370900   -254675.69     82.35191   -254593.34    402.46501    5575.6821    16117.588 
  371000   -254675.04    80.084251   -254594.96    391.38264    5266.2905    16117.588 
  371100   -254675.43    81.611024   -254593.82    398.84419     5416.044    16117.588 
  371200   -254671.97     81.57195    -254590.4    398.65323    5399.5194    16117.588 
  371300   -254673.03    86.122751    -254586.9    420.89362    5721.9498    16117.588 
  371400   -254670.99    82.401329   -254588.59    402.70652    5419.3961    16117.588 
  371500   -254672.54    81.107575   -254591.43    396.38377    5397.9198    16117.588 
  371600   -254674.77    81.991014   -254592.78    400.70126    5390.3614    16117.588 
  371700   -254672.55    78.638006   -254593.92    384.31465    5235.2437    16117.588 
  371800   -254671.52    80.538954   -254590.98    393.60484    5362.9621    16117.588 
  371900   -254668.92    81.024062   -254587.89    395.97563    5328.0116    16117.588 
  372000   -254670.95    83.680074   -254587.27    408.95592    5504.0658    16117.588 
  372100    -254670.8    82.099875    -254588.7    401.23328    5398.8739    16117.588 
  372200   -254673.53    83.139956   -254590.39    406.31629    5467.1392    16117.588 
  372300   -254674.04    81.557249   -254592.48    398.58139     5363.362    16117.588 
  372400   -254675.72    81.185556   -254594.53    396.76487    5367.5858    16117.588 
  372500   -254673.71    79.746805   -254593.96     389.7335    5242.6095    16117.588 
  372600   -254671.72    80.974388   -254590.75    395.73286    5324.4178    16117.588 
  372700   -254670.97    83.012363   -254587.95    405.69273    5499.7184    16117.588 
  372800   -254670.77    82.527523   -254588.24    403.32325    5427.8556    16117.588 
  372900   -254672.38    82.422548   -254589.96    402.81022    5420.4299    16117.588 
  373000   -254673.08    78.948162   -254594.14    385.83042    5188.8577    16117.588 
  373100   -254674.51    80.485716   -254594.02    393.34466     5350.849    16117.588 
  373200   -254673.56    81.688242   -254591.87    399.22157    5470.6741    16117.588 
  373300   -254671.83    82.444012   -254589.39    402.91512    5418.1839    16117.588 
  373400   -254672.04    82.794227   -254589.25    404.62667    5467.6217    16117.588 
  373500   -254672.34    82.260512   -254590.07    402.01833    5408.1782    16117.588 
  373600   -254672.18     79.78384   -254592.39     389.9145    5242.9594    16117.588 
  373700   -254674.31    80.713985    -254593.6    394.46024    5307.0243    16117.588 
  373800   -254675.12    82.729104   -254592.39     404.3084    5439.5398    16117.588 
  373900   -254674.54    84.555388   -254589.99     413.2337    5665.2868    16117.588 
  374000   -254669.89    82.167999   -254587.72     401.5662    5400.6005    16117.588 
  374100   -254670.38    83.187572   -254587.19      406.549    5499.6932    16117.588 
  374200   -254670.94    80.085089   -254590.86    391.38674    5264.7467    16117.588 
  374300   -254675.03    82.138064   -254592.89    401.41991     5400.868    16117.588 
  374400   -254672.49    80.962865   -254591.52    395.67655    5356.6302    16117.588 
  374500   -254671.33    81.918991   -254589.41    400.34927    5501.9919    16117.588 
  374600   -254674.19    88.099581   -254586.09    430.55466    5833.0958    16117.588 
  374700   -254671.76    81.292164   -254590.47    397.28588    5436.7777    16117.588 
  374800   -254676.11      82.9433   -254593.17    405.35521    5455.5203    16117.588 
  374900   -254671.73    79.040472   -254592.69    386.28155    5227.8377    16117.588 
  375000   -254670.29    81.572065   -254588.71     398.6538    5363.3432    16117.588 
  375100   -254669.82    82.308046   -254587.51    402.25064    5410.0926    16117.588 
  375200   -254671.19    83.052467   -254588.14    405.88872    5499.9115    16117.588 
  375300   -254672.71    81.226889   -254591.48    396.96687    5341.2627    16117.588 
  375400      -254675    82.506996   -254592.49    403.22293    5545.0125    16117.588 
  375500   -254674.66    81.554375   -254593.11    398.56734    5443.6448    16117.588 
  375600   -254672.87    80.479671   -254592.39    393.31511    5291.9041    16117.588 
  375700   -254672.08    81.955227   -254590.13    400.52636    5387.5915    16117.588 
  375800   -254669.59    82.138132   -254587.45    401.42024    5400.8939    16117.588 
  375900   -254671.83    84.462879   -254587.37     412.7816    5553.4479    16117.588 
  376000   -254670.33    79.651213   -254590.68    389.26633    5298.9973    16117.588 
  376100   -254671.02    77.347472   -254593.67    378.00763    5083.1622    16117.588 
  376200    -254672.1    80.891534   -254591.21    395.32795    5317.4698    16117.588 
  376300   -254672.85    83.665137   -254589.18    408.88292    5502.9538    16117.588 
  376400   -254671.64    83.035606   -254588.61    405.80632     5527.686    16117.588 
  376500   -254671.52    79.489148   -254592.03    388.47429    5249.8586    16117.588 
  376600   -254672.23    77.686207   -254594.54    379.66308    5132.4845    16117.588 
  376700   -254672.06    79.912427   -254592.14    390.54292     5339.715    16117.588 
  376800   -254673.27    83.250154   -254590.02    406.85485    5555.6614    16117.588 
  376900   -254671.27    81.715042   -254589.55    399.35254    5374.4253    16117.588 
  377000   -254673.68    83.646542   -254590.03    408.79205    5555.1144    16117.588 
  377100   -254673.65    79.638185   -254594.01    389.20266    5236.0205    16117.588 
  377200   -254676.17    81.754252   -254594.42    399.54417    5376.2643    16117.588 
  377300    -254675.5    83.752381   -254591.74     409.3093    5507.3516    16117.588 
  377400   -254672.62    82.117247   -254590.51    401.31817    5399.1527    16117.588 
  377500    -254672.6     80.74585   -254591.86    394.61597    5338.0355    16117.588 
  377600   -254674.06    80.991028   -254593.07    395.81419    5358.1759    16117.588 
  377700   -254673.73     80.34773   -254593.38     392.6703    5281.8724    16117.588 
  377800   -254678.66    80.988272   -254597.68    395.80072    5369.5547    16117.588 
  377900   -254676.92    78.197204   -254598.72    382.16039    5186.8894    16117.588 
  378000   -254675.65    80.538091   -254595.11    393.60062    5294.5066    16117.588 
  378100   -254674.53    81.627238    -254592.9    398.92343    5366.4877    16117.588 
  378200   -254672.94    82.104921   -254590.83    401.25794    5397.3284    16117.588 
  378300   -254672.56    82.271712   -254590.29    402.07306    5409.1709    16117.588 
  378400    -254674.8    82.126711   -254592.67    401.36442    5434.1028    16117.588 
  378500   -254673.96    77.694154   -254596.26    379.70192    5157.7886    16117.588 
  378600   -254676.07    81.166363    -254594.9    396.67107    5364.5665    16117.588 
  378700   -254673.56    80.761314    -254592.8    394.69154     5396.678    16117.588 
  378800    -254673.3    82.217354   -254591.08    401.80741    5445.6183    16117.588 
  378900   -254671.43    79.958069   -254591.47    390.76598    5257.0026    16117.588 
  379000   -254674.61      81.7843   -254592.82    399.69102    5377.2011    16117.588 
  379100   -254678.28    80.635064   -254597.64    394.07454    5301.6746    16117.588 
  379200   -254676.15    78.635515   -254597.52    384.30248    5207.0451    16117.588 
  379300   -254676.94    82.162563   -254594.78    401.53964    5432.3933    16117.588 
  379400   -254674.86    82.134469   -254592.72    401.40234    5434.8216    16117.588 
  379500   -254675.24    83.425143   -254591.82    407.71004    5509.8573    16117.588 
  379600   -254677.08    82.646295   -254594.43     403.9037    5435.8253    16117.588 
  379700   -254678.38    80.081289    -254598.3    391.36817    5301.5193    16117.588 
  379800   -254678.69    80.965721   -254597.73    395.69051    5323.6299    16117.588 
  379900   -254674.21    78.652757   -254595.55    384.38674     5170.107    16117.588 
  380000   -254673.53    81.175708   -254592.36    396.71674    5337.7034    16117.588 
  380100   -254673.65    82.646518   -254591.01     403.9048    5568.3089    16117.588 
  380200   -254674.69    81.885528    -254592.8    400.18573     5385.623    16117.588 
  380300   -254675.53    80.164508   -254595.36    391.77487     5269.351    16117.588 
  380400   -254675.23    80.505698   -254594.72    393.44232    5293.6239    16117.588 
  380500   -254673.58    84.535102   -254589.05    413.13456    5560.4064    16117.588 
  380600   -254674.22     84.52557   -254589.69    413.08798    5592.6811    16117.588 
  380700   -254674.41    81.292359   -254593.12    397.28684    5346.2749    16117.588 
  380800   -254673.17    79.582613   -254593.59    388.93107    5233.0894    16117.588 
  380900    -254671.6    81.334581   -254590.27    397.49318    5349.2097    16117.588 
  381000   -254670.93    82.593596   -254588.34    403.64615    5430.6559    16117.588 
  381100   -254672.64     84.03338    -254588.6    410.68258    5526.5886    16117.588 
  381200   -254673.26     82.25177      -254591    401.97561    5409.9899    16117.588 
  381300   -254673.09    79.893431   -254593.19    390.45008    5252.9052    16117.588 
  381400   -254672.07    82.165913    -254589.9    401.55601    5404.8887    16117.588 
  381500   -254671.05    83.238239   -254587.82    406.79662    5474.1859    16117.588 
  381600   -254671.92     84.08875   -254587.83    410.95318    5632.8143    16117.588 
  381700   -254672.73    81.566029   -254591.16     398.6243    5365.4886    16117.588 
  381800    -254674.7     80.96402   -254593.74     395.6822    5384.6674    16117.588 
  381900   -254673.47    79.613234   -254593.85    389.08072    5234.4667    16117.588 
  382000   -254672.81    80.800524   -254592.01    394.88317     5313.353    16117.588 
  382100   -254672.19    84.091849    -254588.1    410.96833    5531.1377    16117.588 
  382200    -254670.7    84.847285   -254585.85    414.66024    5612.9885    16117.588 
  382300   -254672.23    84.028878    -254588.2    410.66057    5559.5635    16117.588 
  382400      -254672     80.71885   -254591.28    394.48402    5307.4257    16117.588 
  382500   -254674.74    81.796229   -254592.94    399.74931    5380.2363    16117.588 
  382600   -254673.83    79.392859   -254594.43    388.00372    5221.5533    16117.588 
  382700   -254676.25    80.912139   -254595.33    395.42865     5321.741    16117.588 
  382800    -254674.4    81.958141   -254592.44     400.5406    5391.6203    16117.588 
  382900   -254671.72     82.13325   -254589.58    401.39638    5400.1785    16117.588 
  383000   -254672.75     83.43833   -254589.31    407.77448    5488.1898    16117.588 
  383100   -254672.24    78.725998   -254593.51    384.74468    5176.7626    16117.588 
  383200    -254675.7    81.090312   -254594.61     396.2994      5333.02    16117.588 
  383300   -254676.35     82.61239   -254593.73    403.73801    5472.8458    16117.588 
  383400   -254673.72    81.276769   -254592.44    397.21065    5345.6959    16117.588 
  383500   -254672.58    83.030443   -254589.55    405.78109    5460.1977    16117.588 
  383600   -254670.92    84.133123   -254586.79    411.17003     5558.338    16117.588 
  383700   -254673.03    84.165836   -254588.86    411.32991     5590.487    16117.588 
  383800   -254674.22    80.993473   -254593.23    395.82614    5323.6653    16117.588 
  383900   -254671.92    78.937787   -254592.99    385.77972    5190.4063    16117.588 
  384000      -254673    82.859451   -254590.14    404.94543    5488.3981    16117.588 
  384100   -254671.28    83.420393   -254587.86    407.68682    5518.6829    16117.588 
  384200   -254671.61     82.90852   -254588.71    405.18523    5455.1008    16117.588 
  384300   -254677.56    86.264162    -254591.3    421.58471    5678.2514    16117.588 
  384400   -254673.25    81.309732   -254591.94    397.37174    5349.6802    16117.588 
  384500   -254672.34    81.803419   -254590.53    399.78446     5478.915    16117.588 
  384600   -254672.17    84.027591   -254588.14    410.65429    5528.7621    16117.588 
  384700   -254673.94    84.677755   -254589.26    413.83173    5572.4086    16117.588 
  384800   -254674.51    80.817977   -254593.69    394.96847    5316.0366    16117.588 
  384900   -254674.77    80.050479   -254594.72     391.2176    5265.4772    16117.588 
  385000   -254672.99    80.641104   -254592.35    394.10406    5305.6371    16117.588 
  385100   -254671.93    81.357486   -254590.57    397.60512    5352.4806    16117.588 
  385200   -254671.53    80.961976   -254590.57    395.67221    5323.3527    16117.588 
  385300   -254672.69    81.462583   -254591.23    398.11874    5399.9877    16117.588 
  385400   -254674.12    80.667797   -254593.45    394.23451    5342.2668    16117.588 
  385500   -254674.16    78.972552   -254595.19    385.94962    5194.2922    16117.588 
  385600   -254672.44    79.208101   -254593.23    387.10078    5262.4178    16117.588 
  385700    -254673.2    84.149089   -254589.05    411.24806    5576.8262    16117.588 
  385800   -254670.27    79.911078   -254590.36    390.53632    5286.5199    16117.588 
  385900   -254672.83    82.107224   -254590.72    401.26919    5401.3083    16117.588 
  386000   -254672.12    80.783305   -254591.34    394.79902    5310.7265    16117.588 
  386100   -254674.25     81.80168   -254592.44    399.77595    5417.0869    16117.588 
  386200   -254675.26    82.606177   -254592.65    403.70764    5434.0209    16117.588 
  386300   -254672.66    80.142379   -254592.52    391.66672    5270.1534    16117.588 
  386400   -254675.23       84.002   -254591.23    410.52922     5558.747    16117.588 
  386500   -254671.38    80.946713   -254590.43    395.59761    5360.2402    16117.588 
  386600   -254672.68    80.996571   -254591.69    395.84128    5355.7885    16117.588 
  386700   -254674.25    79.573556   -254594.68    388.88681    5234.0043    16117.588 
  386800    -254676.1    80.702352    -254595.4    394.40339    5309.9926    16117.588 
  386900   -254675.73    83.258904   -254592.47    406.89761    5583.9387    16117.588 
  387000   -254674.86    85.859522      -254589    419.60718    5678.2654    16117.588 
  387100   -254673.05    82.806307   -254590.24    404.68571    5471.8972    16117.588 
  387200   -254672.62     81.22561    -254591.4    396.96062    5390.3348    16117.588 
  387300   -254675.16    84.171471   -254590.99    411.35745    5566.9106    16117.588 
  387400   -254672.29     81.27779   -254591.01    397.21563    5558.0902    16117.588 
  387500   -254672.64    81.809372   -254590.83    399.81355    5384.4953    16117.588 
  387600   -254673.62    83.993232   -254589.63    410.48637    5584.2205    16117.588 
  387700   -254672.83    81.899166   -254590.93    400.25238    5389.0853    16117.588 
  387800    -254673.5    80.729211   -254592.77    394.53465    5312.7145    16117.588 
  387900   -254671.48    79.159587   -254592.32    386.86369    5207.6194    16117.588 
  388000   -254673.38     84.21023   -254589.17    411.54687    5580.6241    16117.588 
  388100   -254671.37    83.770691    -254587.6    409.39878    5512.3389    16117.588 
  388200   -254672.52    82.780281   -254589.74    404.55851    5533.9263    16117.588 
  388300   -254674.38    81.028681   -254593.35    395.99821    5329.4815    16117.588 
  388400   -254672.83     79.89075   -254592.93    390.43698    5256.6298    16117.588 
  388500   -254674.65    84.377978   -254590.27    412.36667    5553.8848    16117.588 
  388600   -254669.42    79.765486   -254589.66     389.8248    5247.7025    16117.588 
  388700   -254673.87    82.980866   -254590.89     405.5388    5461.1613    16117.588 
  388800   -254674.04    79.996681   -254594.04    390.95468    5298.4108    16117.588 
  388900   -254676.82    79.890925   -254596.93    390.43783     5347.466    16117.588 
  389000   -254676.97    81.389508   -254595.58    397.76161    5357.3447    16117.588 
  389100    -254675.7    82.616025   -254593.08    403.75577    5437.7898    16117.588 
  389200   -254672.73    80.578806   -254592.15     393.7996    5573.3726    16117.588 
  389300   -254673.64    81.400417   -254592.24    397.81493    5415.5097    16117.588 
  389400   -254673.01    81.366479   -254591.64    397.64907    5353.0441    16117.588 
  389500   -254672.72    84.455202   -254588.26    412.74408      5586.39    16117.588 
  389600   -254669.37    83.338247   -254586.03    407.28537    5483.8297    16117.588 
  389700   -254670.72    82.179154   -254588.55    401.62072    5407.7784    16117.588 
  389800   -254673.86    81.888687   -254591.97    400.20117    5387.9549    16117.588 
  389900   -254673.43    82.613562   -254590.81    403.74373     5473.622    16117.588 
  390000   -254671.78    81.559677   -254590.22    398.59325    5366.7044    16117.588 
  390100   -254670.38    81.328469   -254589.05    397.46331    5412.1725    16117.588 
  390200   -254670.12    84.341231   -254585.78    412.18709    5550.2701    16117.588 
  390300   -254670.88     84.77399   -254586.11    414.30204    5650.0359    16117.588 
  390400   -254674.09    83.153099   -254590.94    406.38052    5494.0076    16117.588 
  390500   -254672.07    80.205101   -254591.87    391.97326    5276.4271    16117.588 
  390600   -254672.95    80.726167   -254592.23    394.51978    5310.9334    16117.588 
  390700    -254673.5    82.185465   -254591.31    401.65157    5408.3315    16117.588 
  390800   -254671.48    83.026292   -254588.45     405.7608     5462.592    16117.588 
  390900   -254672.61    84.608895      -254588     413.4952    5569.0123    16117.588 
  391000   -254672.97    81.053308   -254591.92    396.11856    5333.9326    16117.588 
  391100   -254674.32    80.184541   -254594.13    391.87277    5302.4494    16117.588 
  391200   -254673.89    80.401375   -254593.49    392.93248    5289.0879    16117.588 
  391300   -254674.29    83.516357   -254590.78    408.15582    5496.4578    16117.588 
  391400    -254672.3     83.93883   -254588.36     410.2205    5524.2934    16117.588 
  391500   -254671.21    82.584537   -254588.63    403.60188    5432.9915    16117.588 
  391600   -254670.66    78.759344    -254591.9    384.90765    5180.5133    16117.588 
  391700   -254673.56    76.813413   -254596.75    375.39761    5051.2931    16117.588 
  391800   -254675.23    80.854475   -254594.38    395.14684    5318.4831    16117.588 
  391900   -254673.02    81.022506      -254592    395.96803    5331.9228    16117.588 
  392000   -254674.71    85.043368   -254589.67    415.61853    5627.6697    16117.588 
  392100   -254673.18    83.314153   -254589.87    407.16761    5482.1984    16117.588 
  392200   -254671.05    79.982673   -254591.07    390.88622    5281.8825    16117.588 
  392300   -254672.81    83.679508   -254589.13    408.95316    5527.4658    16117.588 
  392400      -254671    83.406496    -254587.6    407.61891    5487.2183    16117.588 
  392500   -254671.36    82.226245   -254589.14    401.85086    5407.2936    16117.588 
  392600    -254675.6    83.038815   -254592.56      405.822      5462.27    16117.588 
  392700   -254674.22    82.413461   -254591.81    402.76581    5412.9562    16117.588 
  392800   -254670.13    79.356514   -254590.78     387.8261    5215.7108    16117.588 
  392900   -254671.69    83.911752   -254587.77    410.08817    5567.9217    16117.588 
  393000   -254667.67    81.725923   -254585.94    399.40572    5372.9924    16117.588 
  393100   -254670.12    83.756242   -254586.37    409.32816    5508.6216    16117.588 
  393200   -254672.04    83.667165   -254588.37    408.89283      5504.63    16117.588 
  393300    -254673.9    82.475949   -254591.43     403.0712    5426.6458    16117.588 
  393400   -254674.19    81.150351   -254593.04    396.59282    5457.3165    16117.588 
  393500   -254672.38    80.494662   -254591.89    393.38838    5339.4203    16117.588 
  393600   -254671.61    84.644796   -254586.97    413.67065    5568.5049    16117.588 
  393700   -254671.14    83.522439   -254587.62    408.18554    5565.5297    16117.588 
  393800   -254672.76    82.119858   -254590.64    401.33094    5401.3052    16117.588 
  393900   -254674.93    82.315071   -254592.62    402.28497    5413.9346    16117.588 
  394000   -254673.62     80.97453   -254592.64    395.73356    5353.2493    16117.588 
  394100   -254670.48    80.571146   -254589.91    393.76217    5297.0436    16117.588 
  394200   -254669.51    82.171036   -254587.34    401.58105     5403.291    16117.588 
  394300      -254670    82.458038   -254587.55    402.98366    5421.9535    16117.588 
  394400   -254668.72    81.317297    -254587.4    397.40871    5347.5466    16117.588 
  394500   -254665.89    80.551538   -254585.33    393.66634    5405.9379    16117.588 
  394600   -254667.44     83.95442   -254583.48    410.29669    5523.9292    16117.588 
  394700   -254670.12     83.88039   -254586.24    409.93489    5518.5669    16117.588 
  394800   -254670.73    81.025063   -254589.71    395.98052    5326.7598    16117.588 
  394900   -254670.72    80.068713   -254590.65    391.30671     5263.884    16117.588 
  395000    -254671.7    82.723079   -254588.98    404.27896    5440.9068    16117.588 
  395100   -254669.23    82.641162   -254586.58    403.87862     5434.462    16117.588 
  395200   -254669.72    86.162146   -254583.56    421.08615    5667.2154    16117.588 
  395300   -254668.72    82.807286   -254585.92    404.69049    5588.2454    16117.588 
  395400   -254671.41    82.440507   -254588.97    402.89799    5422.1645    16117.588 
  395500   -254670.14    80.825407   -254589.31    395.00478    5373.4655    16117.588 
  395600   -254672.63    83.238707   -254589.39     406.7989    5505.6862    16117.588 
  395700   -254672.32    79.499798   -254592.82    388.52635    5226.2442    16117.588 
  395800   -254674.99    80.408242   -254594.58    392.96603    5432.7978    16117.588 
  395900   -254677.15    82.769511   -254594.38    404.50588    5484.2949    16117.588 
  396000   -254673.03    81.964014   -254591.06     400.5693    5422.5574    16117.588 
  396100   -254671.11    82.035633   -254589.07    400.91932    5394.7968    16117.588 
  396200   -254671.88    81.878583      -254590    400.15179    5384.9398    16117.588 
  396300   -254673.32    80.912473   -254592.41    395.43028    5371.0551    16117.588 
  396400   -254674.47     80.60645   -254593.86     393.9347    5301.1803    16117.588 
  396500   -254671.99    80.147944   -254591.85    391.69392    5267.2924    16117.588 
  396600   -254670.61    82.393127   -254588.22    402.66644    5419.7534    16117.588 
  396700   -254672.94    84.457661   -254588.48     412.7561    5582.9438    16117.588 
  396800   -254670.29    80.863504   -254589.42    395.19096    5348.7135    16117.588 
  396900    -254673.7    83.944501   -254589.76    410.24821    5522.2481    16117.588 
  397000   -254673.52    81.428844   -254592.09    397.95385    5383.0494    16117.588 
  397100   -254674.04    81.097486   -254592.95    396.33446    5332.6317    16117.588 
  397200   -254673.09    82.428682   -254590.66     402.8402    5445.5322    16117.588 
  397300   -254673.41    85.629645   -254587.78    418.48374    5693.6759    16117.588 
  397400   -254670.54    82.144522    -254588.4    401.45147    5404.0019    16117.588 
  397500   -254671.08    81.731522   -254589.34    399.43308    5376.5332    16117.588 
  397600   -254670.83    80.883989   -254589.95    395.29108    5355.9643    16117.588 
  397700   -254673.05    78.487186   -254594.56    383.57757    5187.2372    16117.588 
  397800   -254677.25    82.277753   -254594.98    402.10259    5412.8994    16117.588 
  397900   -254674.31    81.504845   -254592.81    398.32528    5456.0019    16117.588 
  398000   -254672.02    81.928659    -254590.1    400.39652    5389.0334    16117.588 
  398100   -254672.22     81.52453   -254590.69    398.42148    5362.5995    16117.588 
  398200   -254674.43    82.560711   -254591.87    403.48544    5454.8371    16117.588 
  398300   -254673.98    81.966023   -254592.01    400.57912    5391.5945    16117.588 
  398400   -254673.87    82.897833   -254590.97      405.133    5454.4684    16117.588 
  398500   -254670.37    85.018337   -254585.35    415.49619    5708.3371    16117.588 
  398600   -254669.37    84.630749   -254584.74      413.602    5567.3505    16117.588 
  398700   -254671.33    82.508681   -254588.82    403.23116    5426.9409    16117.588 
  398800   -254672.12    81.488242   -254590.64    398.24414    5359.5353    16117.588 
  398900   -254674.88    83.616905   -254591.26    408.64721    5500.9534    16117.588 
  399000   -254673.36    82.044104   -254591.32    400.96071    5396.5991    16117.588 
  399100   -254672.31    82.311692      -254590    402.26845     5441.111    16117.588 
  399200    -254672.6    85.859286   -254586.74    419.60603    5650.1556    16117.588 
  399300   -254670.89    83.220997   -254587.67    406.71235    5549.3352    16117.588 
  399400    -254675.5    84.670085   -254590.83    413.79424    5570.7327    16117.588 
  399500   -254675.01    83.331047   -254591.68    407.25018    5481.9387    16117.588 
  399600   -254672.57    80.937329   -254591.64    395.55175    5323.7251    16117.588 
  399700   -254671.64    81.717831   -254589.92    399.36617      5375.32    16117.588 
  399800   -254670.57    81.395508   -254589.18    397.79094    5353.7002    16117.588 
  399900   -254672.27     83.42717   -254588.84    407.71995     5523.688    16117.588 
  400000   -254673.09    81.296132    -254591.8    397.30527    5347.6521    16117.588 
  400100   -254673.82    80.331271   -254593.49    392.58987    5284.3299    16117.588 
  400200   -254674.42    81.154683   -254593.27    396.61399    5414.6341    16117.588 
  400300   -254672.83    83.025603   -254589.81    405.75743    5463.8398    16117.588 
  400400   -254672.59    83.762078   -254588.82    409.35669    5511.7661    16117.588 
  400500   -254670.29    80.987246    -254589.3     395.7957     5395.636    16117.588 
  400600   -254673.72    81.016803    -254592.7    395.94015    5329.3863    16117.588 
  400700   -254675.09    78.498541   -254596.59    383.63306    5255.9341    16117.588 
  400800   -254673.72    80.573937   -254593.14    393.77581    5300.3639    16117.588 
  400900   -254675.46    84.666454   -254590.79     413.7765    5757.6095    16117.588 
  401000   -254673.41     81.82755   -254591.59    399.90239    5481.4293    16117.588 
  401100   -254674.14    80.343223    -254593.8    392.64828    5283.9802    16117.588 
  401200   -254673.88    80.392146   -254593.49    392.88737    5286.6483    16117.588 
  401300   -254673.89    84.873667   -254589.02    414.78918    5584.0312    16117.588 
  401400    -254671.1    81.205611    -254589.9    396.86289    5371.3926    16117.588 
  401500   -254673.35    81.509008   -254591.84    398.34563    5362.1429    16117.588 
  401600   -254674.71    82.215276   -254592.49    401.79725    5409.3777    16117.588 
  401700   -254674.89    82.065276   -254592.82    401.06418    5501.3084    16117.588 
  401800   -254674.25    78.172258   -254596.08    382.03848    5141.2576    16117.588 
  401900   -254675.43    78.991018   -254596.44    386.03987    5352.8298    16117.588 
  402000    -254674.9    82.163945   -254592.73     401.5464     5406.708    16117.588 
  402100   -254672.69     81.93422   -254590.75    400.42369    5390.7518    16117.588 
  402200   -254671.06    81.576585   -254589.49    398.67588    5468.4627    16117.588 
  402300   -254670.69    82.215462   -254588.48    401.79817    5409.2848    16117.588 
  402400   -254670.47    83.850257   -254586.62    409.78763    5516.1368    16117.588 
  402500    -254670.1    83.847945   -254586.25    409.77633    5517.3178    16117.588 
  402600   -254670.46    80.890277   -254589.57     395.3218    5321.4524    16117.588 
  402700   -254670.16    78.453655   -254591.71     383.4137    5159.2147    16117.588 
  402800   -254673.17    82.015239   -254591.16    400.81965    5453.3386    16117.588 
  402900   -254671.64    83.160847   -254588.48    406.41839    5515.0279    16117.588 
  403000    -254667.5    82.681102   -254584.82    404.07381    5440.4558    16117.588 
  403100   -254668.55    82.975334   -254585.57    405.51176    5460.0406    16117.588 
  403200   -254668.93    81.236334   -254587.69    397.01303    5343.3959    16117.588 
  403300   -254670.09    81.792238    -254588.3    399.72981    5381.4449    16117.588 
  403400   -254673.47    83.451761   -254590.01    407.84013    5491.7223    16117.588 
  403500   -254674.55    82.779582   -254591.77     404.5551    5447.9063    16117.588 
  403600   -254673.96    80.965738      -254593    395.69059    5326.9602    16117.588 
  403700    -254673.5    81.760336   -254591.74     399.5739    5506.1603    16117.588 
  403800   -254671.55    81.511126   -254590.04    398.35598    5412.1273    16117.588 
  403900   -254670.93    80.973898   -254589.96    395.73047    5357.5305    16117.588 
  404000   -254673.32     83.11777    -254590.2    406.20786    5541.5308    16117.588 
  404100   -254674.86    84.338661   -254590.52    412.17453    5582.1367    16117.588 
  404200   -254672.51    78.445172   -254594.06    383.37224    5157.0717    16117.588 
  404300   -254674.33    80.453814   -254593.87    393.18875    5319.8431    16117.588 
  404400    -254673.8    81.981175   -254591.82    400.65317    5389.5757    16117.588 
  404500   -254671.73    84.944588   -254586.79    415.13578    5588.4289    16117.588 
  404600   -254669.34    82.155515   -254587.18    401.50519     5403.607    16117.588 
  404700   -254672.32    83.067207   -254589.25    405.96076    5488.5187    16117.588 
  404800   -254672.79    81.909178   -254590.88    400.30131    5389.2049    16117.588 
  404900   -254672.73    81.744379   -254590.98    399.49592    5405.7932    16117.588 
  405000   -254671.52    81.676295   -254589.84    399.16318    5397.3438    16117.588 
  405100   -254673.26     86.70199   -254586.56    423.72444     5837.257    16117.588 
  405200   -254671.16    86.407313   -254584.76    422.28431     5684.193    16117.588 
  405300   -254672.47    83.651821   -254588.82    408.81785    5504.5788    16117.588 
  405400   -254672.36    80.837648   -254591.52     395.0646    5316.6494    16117.588 
  405500   -254673.75     81.41237   -254592.34    397.87334    5353.7156    16117.588 
  405600      -254677    83.717598   -254593.29    409.13931    5509.8842    16117.588 
  405700   -254674.13    79.154113   -254594.98    386.83694    5206.6939    16117.588 
  405800   -254675.91    81.270371   -254594.64    397.17938    5370.1297    16117.588 
  405900   -254673.43    82.637508   -254590.79    403.86076    5509.1002    16117.588 
  406000   -254671.91    83.039292   -254588.87    405.82433    5493.1659    16117.588 
  406100   -254672.04    82.414854   -254589.62    402.77262    5421.9913    16117.588 
  406200    -254673.3    81.828954   -254591.47    399.90925    5384.5301    16117.588 
  406300   -254676.07     81.26806    -254594.8    397.16808    5489.0758    16117.588 
  406400   -254673.39     78.35565   -254595.03    382.93474    5367.9929    16117.588 
  406500   -254672.14     80.72488   -254591.42    394.51349    5311.0123    16117.588 
  406600    -254668.6    79.102011    -254589.5    386.58231    5316.7237    16117.588 
  406700   -254668.75    81.700956   -254587.05     399.2837    5422.7173    16117.588 
  406800   -254670.47    84.256286   -254586.22    411.77195    5594.5575    16117.588 
  406900   -254670.54    81.363548   -254589.17    397.63474     5353.256    16117.588 
  407000   -254672.76     80.40518   -254592.36    392.95107    5290.3598    16117.588 
  407100   -254675.12    79.108769   -254596.01    386.61533    5204.1562    16117.588 
  407200   -254676.82    79.509864   -254597.31    388.57554    5231.4175    16117.588 
  407300   -254674.43    81.617693   -254592.81    398.87679    5404.1305    16117.588 
  407400   -254673.65    82.877278   -254590.77    405.03255    5453.1352    16117.588 
  407500   -254671.97    82.623068   -254589.35    403.79019    5495.8106    16117.588 
  407600   -254672.21    82.315581   -254589.89    402.28746    5499.8451    16117.588 
  407700   -254673.69    81.006068   -254592.68    395.88769     5358.447    16117.588 
  407800   -254673.88    79.231002   -254594.65     387.2127    5212.0001    16117.588 
  407900   -254672.76    80.792421   -254591.96    394.84357    5341.6248    16117.588 
  408000   -254672.16    82.098146   -254590.06    401.22483    5402.7506    16117.588 
  408100   -254671.11    81.486658   -254589.62     398.2364    5361.7708    16117.588 
  408200   -254669.79    82.152722   -254587.63    401.49154    5406.4249    16117.588 
  408300   -254670.18    84.244048   -254585.93    411.71214    5628.2631    16117.588 
  408400    -254669.5    80.601754    -254588.9    393.91175    5399.0088    16117.588 
  408500   -254671.41    78.638564   -254592.77    384.31738    5174.6204    16117.588 
  408600   -254671.46    79.339179   -254592.12    387.74137    5282.6599    16117.588 
  408700   -254671.45    83.328402   -254588.12    407.23726    5485.5295    16117.588 
  408800   -254668.92    81.790674   -254587.12    399.72217    5382.9405    16117.588 
  408900    -254668.5    81.468982   -254587.03    398.15001    5361.6491    16117.588 
  409000   -254670.07    82.133174   -254587.93    401.39601     5526.734    16117.588 
  409100   -254672.66    82.162633    -254590.5    401.53998     5409.084    16117.588 
  409200   -254673.69    80.530669   -254593.16    393.56435    5301.0152    16117.588 
  409300   -254672.95    81.010695   -254591.94    395.91031      5407.19    16117.588 
  409400    -254672.2    82.999626    -254589.2    405.63048    5464.1014    16117.588 
  409500   -254671.38    82.299129   -254589.08    402.20706    5505.4819    16117.588 
  409600   -254672.18    82.622227   -254589.56    403.78608    5514.3958    16117.588 
  409700    -254673.9    79.697545    -254594.2    389.49276    5246.6081    16117.588 
  409800   -254674.74    78.811529   -254595.93    385.16268    5188.3448    16117.588 
  409900   -254672.48    80.211024   -254592.27     392.0022    5318.6771    16117.588 
  410000   -254671.74    82.285712   -254589.45    402.14148    5418.9001    16117.588 
  410100   -254671.98    83.175291    -254588.8    406.48898     5476.245    16117.588 
  410200   -254672.43    81.945268   -254590.48    400.47769    5395.3825    16117.588 
  410300   -254674.25    80.978973   -254593.27    395.75528     5365.071    16117.588 
  410400   -254673.67    81.049202   -254592.62    396.09849    5477.1698    16117.588 
  410500   -254673.24    85.789094   -254587.45    419.26299    5650.1901    16117.588 
  410600   -254672.88    84.672251   -254588.21    413.80483     5650.938    16117.588 
  410700   -254674.84    84.197272   -254590.64    411.48354      5545.61    16117.588 
  410800   -254673.07     81.43569   -254591.64    397.98731    5400.4417    16117.588 
  410900   -254673.84    82.493851   -254591.35    403.15869    5433.2234    16117.588 
  411000   -254671.83    81.155237   -254590.67     396.6167     5406.608    16117.588 
  411100   -254671.88    82.616663   -254589.26    403.75889    5498.2136    16117.588 
  411200    -254669.5    84.836806   -254584.66    414.60903    5613.0416    16117.588 
  411300   -254669.12    83.631822   -254585.48    408.72011     5507.051    16117.588 
  411400   -254670.65    81.238525   -254589.41    397.02374    5348.5238    16117.588 
  411500   -254671.78    80.292978   -254591.48    392.40272    5283.6387    16117.588 
  411600   -254674.26    82.813779   -254591.45    404.72222    5451.8931    16117.588 
  411700      -254673    83.012917   -254589.99    405.69543    5537.4929    16117.588 
  411800   -254672.92    83.600775   -254589.32    408.56838    5497.9126    16117.588 
  411900   -254672.21    82.754779   -254589.45    404.43388      5471.98    16117.588 
  412000   -254674.16     82.91142   -254591.25    405.19941    5565.5018    16117.588 
  412100   -254673.21    78.901051   -254594.31    385.60018    5248.4369    16117.588 
  412200    -254674.6    81.203601    -254593.4    396.85306    5344.2542    16117.588 
  412300   -254673.41     83.61215    -254589.8    408.62397    5567.4412    16117.588 
  412400   -254672.36    83.222117   -254589.14    406.71782    5511.0983    16117.588 
  412500   -254672.21    82.128498   -254590.08    401.37316     5407.318    16117.588 
  412600   -254672.66    81.404904   -254591.25    397.83686    5415.9845    16117.588 
  412700   -254673.86    81.740799   -254592.12    399.47842    5470.1066    16117.588 
  412800   -254673.95    84.606637   -254589.34    413.48416    5573.5236    16117.588 
  412900   -254669.91    82.083756   -254587.83     401.1545    5405.9474    16117.588 
  413000   -254672.13     82.47419   -254589.65     403.0626     5484.213    16117.588 
  413100   -254674.52     81.36557   -254593.16    397.64463    5358.7835    16117.588 
  413200   -254672.21     78.70734    -254593.5    384.65349     5182.606    16117.588 
  413300   -254673.22    81.711985   -254591.51     399.3376    5463.3093    16117.588 
  413400   -254672.66    82.713504   -254589.94    404.23216     5479.537    16117.588 
  413500   -254672.66    82.243856   -254590.42    401.93693    5474.0761    16117.588 
  413600   -254674.11    81.762479   -254592.35    399.58438    5385.8776    16117.588 
  413700   -254675.14    82.254981   -254592.88     401.9913     5414.815    16117.588 
  413800   -254673.41    83.161922   -254590.25    406.42364    5477.5032    16117.588 
  413900   -254669.37    82.575331   -254586.79    403.55689    5438.4154    16117.588 
  414000   -254668.15    81.919048   -254586.23    400.34955    5393.5278    16117.588 
  414100   -254671.38    82.189323    -254589.2    401.67042    5412.5571    16117.588 
  414200   -254672.32    80.467596   -254591.86     393.2561    5297.3765    16117.588 
  414300   -254675.34    83.318413   -254592.02    407.18844    5486.5142    16117.588 
  414400   -254675.16    82.890328   -254592.26    405.09632    5457.3097    16117.588 
  414500   -254673.87    80.082041   -254593.79    391.37185    5272.1218    16117.588 
  414600   -254674.81    79.425541   -254595.39    388.16344    5258.9154    16117.588 
  414700   -254676.03    82.447873   -254593.59    402.93399    5428.4903    16117.588 
  414800   -254673.98    84.317147   -254589.66    412.06939    5551.6973    16117.588 
  414900   -254672.82    83.195839   -254589.63     406.5894    5477.0923    16117.588 
  415000   -254672.73    81.005763   -254591.72     395.8862    5332.6896    16117.588 
  415100   -254674.77      82.3882   -254592.38    402.64236    5424.1783    16117.588 
  415200   -254672.55    80.625788   -254591.93    394.02921    5306.7671    16117.588 
  415300   -254670.27     78.97562   -254591.29    385.96461    5197.9654    16117.588 
  415400   -254673.09    83.367482   -254589.72    407.42824    5528.2147    16117.588 
  415500   -254672.28    82.367477   -254589.91    402.54108    5462.9089    16117.588 
  415600   -254675.45    83.174522   -254592.28    406.48522    5518.7559    16117.588 
  415700   -254676.43    81.884268   -254594.55    400.17957    5420.5775    16117.588 
  415800   -254675.38    81.374073      -254594    397.68618    5411.0381    16117.588 
  415900   -254675.41     83.80804    -254591.6    409.58131    5578.3563    16117.588 
  416000   -254672.89    82.798001   -254590.09    404.64511     5449.806    16117.588 
  416100   -254671.29    82.336471   -254588.96    402.38955    5444.3188    16117.588 
  416200    -254669.6     82.55001   -254587.05    403.43314    5456.6276    16117.588 
  416300   -254668.38    83.274203    -254585.1    406.97238    5481.9969    16117.588 
  416400   -254669.44    82.739115    -254586.7    404.35733    5476.8256    16117.588 
  416500   -254670.31    80.024105   -254590.29     391.0887    5448.5357    16117.588 
  416600   -254672.18    82.088209   -254590.09    401.17626    5427.7946    16117.588 
  416700   -254672.32    83.404417   -254588.92    407.60875    5491.4248    16117.588 
  416800   -254673.01    84.787412   -254588.23    414.36764    5582.0924    16117.588 
  416900   -254671.33    81.886356   -254589.45    400.18978    5490.0017    16117.588 
  417000   -254671.24    79.708602   -254591.53     389.5468    5271.4901    16117.588 
  417100   -254671.56    79.081347   -254592.48    386.48132     5205.897    16117.588 
  417200   -254670.84     82.80311   -254588.04    404.67008    5452.9318    16117.588 
  417300   -254670.65    83.218931   -254587.43    406.70225    5520.3284    16117.588 
  417400   -254672.99    84.026751   -254588.97    410.65018    5676.2062    16117.588 
  417500   -254675.49    82.847726   -254592.64    404.88812    5455.3754    16117.588 
  417600    -254675.1    82.655692   -254592.45    403.94963    5442.7163    16117.588 
  417700   -254673.93    83.277822   -254590.66    406.99006    5482.7528    16117.588 
  417800   -254673.92     82.05888   -254591.86    401.03293    5439.1761    16117.588 
  417900   -254675.06    79.202017   -254595.86    387.07105    5213.9746    16117.588 
  418000   -254675.51      79.0301   -254596.48    386.23087    5201.7632    16117.588 
  418100   -254673.99    80.892696    -254593.1    395.33363    5326.3361    16117.588 
  418200   -254675.16    83.223389   -254591.94    406.72404    5476.0543    16117.588 
  418300   -254672.58    80.264805   -254592.32    392.26504     5269.689    16117.588 
  418400   -254671.74    81.021518   -254590.72     395.9632    5332.3675    16117.588 
  418500   -254670.66    83.008791   -254587.65    405.67527    5494.9151    16117.588 
  418600   -254671.21    83.874262   -254587.33    409.90494    5521.5411    16117.588 
  418700   -254670.56    79.997761   -254590.56    390.95996    5305.1293    16117.588 
  418800   -254673.46    79.901503   -254593.56    390.48953    5257.6349    16117.588 
  418900   -254676.63    77.599005   -254599.03    379.23691    5156.8163    16117.588 
  419000   -254678.04    79.289407   -254598.75    387.49814    5300.8369    16117.588 
  419100   -254673.82    78.346625   -254595.47    382.89063    5231.9335    16117.588 
  419200    -254670.1    78.230294   -254591.87    382.32211    5149.2537    16117.588 
  419300   -254671.84    83.035478    -254588.8    405.80569    5467.7893    16117.588 
  419400   -254671.91    82.862862   -254589.05     404.9621    5454.7328    16117.588 
  419500   -254671.87    79.755373   -254592.11    389.77537    5344.4876    16117.588 
  419600   -254671.09    78.836044   -254592.25    385.28249     5186.632    16117.588 
  419700   -254670.54    80.536026   -254590.01    393.59053    5369.3376    16117.588 
  419800   -254670.67    81.624058   -254589.04    398.90789    5371.5161    16117.588 
  419900   -254669.14    81.908424   -254587.23    400.29763    5384.0866    16117.588 
  420000    -254671.8     85.15193   -254586.64    416.14908    5601.4642    16117.588 
  420100   -254675.53    85.406974   -254590.13    417.39552    5621.4536    16117.588 
  420200   -254672.46    79.710178   -254592.75     389.5545    5245.1554    16117.588 
  420300   -254673.25    81.301671   -254591.94    397.33234    5350.4435    16117.588 
  420400   -254672.05    82.120257   -254589.93    401.33288     5404.827    16117.588 
  420500   -254669.25    81.979458   -254587.27    400.64478    5396.0588    16117.588 
  420600   -254671.46    83.809394   -254587.65    409.58793    5590.1204    16117.588 
  420700   -254670.74    81.503627   -254589.24    398.31933    5363.8155    16117.588 
  420800    -254670.9    80.791947   -254590.11    394.84125    5315.2241    16117.588 
  420900   -254669.64    79.755844   -254589.88    389.77768    5248.3422    16117.588 
  421000   -254672.44    82.354689   -254590.09    402.47858    5420.1564    16117.588 
  421100   -254673.32     80.42951    -254592.9    393.06998    5332.4809    16117.588 
  421200   -254674.64    79.074554   -254595.57    386.44812    5201.8449    16117.588 
  421300   -254676.33    82.037158   -254594.29    400.92677    5426.7769    16117.588 
  421400   -254672.49    81.012741   -254591.47     395.9203    5332.1204    16117.588 
  421500   -254672.87    84.588879   -254588.29    413.39737    5600.8118    16117.588 
  421600   -254670.44    81.137987    -254589.3     396.5324    5340.5418    16117.588 
  421700   -254670.46    79.964007   -254590.49      390.795    5261.8356    16117.588 
  421800   -254671.22    79.802408   -254591.42    390.00524    5251.2671    16117.588 
  421900   -254672.16    81.383789   -254590.78    397.73366      5440.71    16117.588 
  422000   -254671.95    82.744182    -254589.2    404.38209    5474.8602    16117.588 
  422100   -254669.67     84.61611   -254585.06    413.53046     5570.395    16117.588 
  422200   -254669.14    83.563717   -254585.58    408.38727     5501.225    16117.588 
  422300   -254670.47     81.12951   -254589.34    396.49097    5369.8701    16117.588 
  422400   -254672.36    81.534906   -254590.82     398.4722    5366.6272    16117.588 
  422500   -254673.62    82.296153   -254591.32    402.19251    5416.7282    16117.588 
  422600   -254673.82    83.223124   -254590.59    406.72275    5479.2275    16117.588 
  422700   -254668.88    81.825903   -254587.06    399.89434    5436.5696    16117.588 
  422800   -254670.05    85.436213   -254584.62    417.53841    5625.5933    16117.588 
  422900   -254673.26     84.80028   -254588.46    414.43052    5614.8924    16117.588 
  423000    -254673.3    82.744207   -254590.56    404.38221    5530.9458    16117.588 
  423100   -254674.03    82.501934   -254591.53    403.19819    5528.2831    16117.588 
  423200   -254673.74    82.144107    -254591.6    401.44944    5438.9572    16117.588 
  423300   -254674.36    83.372792   -254590.99    407.45419    5545.7742    16117.588 
  423400   -254673.31    81.937454   -254591.37     400.4395    5421.6599    16117.588 
  423500    -254673.2     80.60496   -254592.59    393.92742    5304.3008    16117.588 
  423600   -254673.93    82.215819   -254591.71    401.79991     5411.002    16117.588 
  423700    -254673.6    83.008896    -254590.6    405.67578    5463.7729    16117.588 
  423800   -254670.46    81.956727    -254588.5    400.53369    5394.5043    16117.588 
  423900   -254670.22    83.224852   -254586.99    406.73119    5533.0917    16117.588 
  424000   -254669.97    80.783429   -254589.19    394.79962    5314.7425    16117.588 
  424100   -254675.06    82.650388   -254592.41    403.92371     5437.716    16117.588 
  424200   -254674.05    80.779874   -254593.27    394.78225    5424.5378    16117.588 
  424300    -254675.3    82.746513   -254592.55    404.39348    5502.7572    16117.588 
  424400   -254675.06    86.159298    -254588.9    421.07223    5755.3322    16117.588 
  424500    -254674.4    87.042325   -254587.36     425.3877    5764.7181    16117.588 
  424600   -254674.04    83.447916   -254590.59    407.82133    5492.0403    16117.588 
  424700   -254675.37    81.642899   -254593.73    398.99997    5373.1225    16117.588 
  424800   -254676.45    81.759346   -254594.69    399.56906      5381.34    16117.588 
  424900   -254674.17    79.959016   -254594.21     390.7706    5261.0659    16117.588 
  425000   -254715.66    54.633934   -254661.02    267.00348    3584.1644    16117.588 
  425100   -254717.44    55.216908   -254662.23    269.85255    3622.6286    16117.588 
  425200   -254717.02    57.011428      -254660    278.62262    3740.8818    16117.588 
  425300   -254715.63    57.370574   -254658.26    280.37781    3765.3593    16117.588 
  425400   -254716.15     56.40898   -254659.74    275.67837    3701.3568    16117.588 
  425500    -254717.2    56.699275    -254660.5    277.09708    3720.2906    16117.588 
  425600   -254717.31    56.765714   -254660.54    277.42178    3724.8626    16117.588 
  425700   -254715.54    55.921372   -254659.62    273.29537    3732.0137    16117.588 
  425800   -254715.87    56.654679   -254659.22    276.87914    3718.4416    16117.588 
  425900    -254716.4    56.736274   -254659.66     277.2779    3724.0242    16117.588 
  426000   -254716.43    56.358043   -254660.07    275.42943    3698.8395    16117.588 
  426100   -254716.29    56.697699    -254659.6    277.08938    3721.7568    16117.588 
  426200   -254714.95    58.331724   -254656.62    285.07508    3864.9137    16117.588 
  426300    -254715.9    58.880833   -254657.02    287.75865    3865.6898    16117.588 
  426400    -254717.2     56.86746   -254660.33    277.91903    3731.8176    16117.588 
  426500   -254716.03    54.921321   -254661.11    268.40798    3638.7894    16117.588 
  426600   -254715.63    55.492711   -254660.14    271.20044    3640.4146    16117.588 
  426700   -254714.98    56.391523   -254658.58    275.59306    3700.1492    16117.588 
  426800   -254716.26    56.493562   -254659.77    276.09173    3704.6487    16117.588 
  426900   -254718.73    56.721445   -254662.01    277.20543    3721.5888    16117.588 
  427000   -254719.18    56.495508   -254662.69    276.10125    3707.3658    16117.588 
  427100   -254717.94    55.734964    -254662.2    272.38436    3656.6653    16117.588 
  427200   -254718.06    57.362825    -254660.7    280.33994    3808.8846    16117.588 
  427300   -254717.17    58.601559   -254658.57     286.3938     3846.803    16117.588 
  427400   -254713.19    55.922202   -254657.27    273.29942     3669.458    16117.588 
  427500    -254715.7    55.592907   -254660.11    271.69011    3647.0972    16117.588 
  427600   -254716.88     54.59115   -254662.29    266.79439    3580.1825    16117.588 
  427700   -254719.59    57.224068   -254662.36    279.66182    3778.8328    16117.588 
  427800   -254718.11    55.600667   -254662.51    271.72804    3647.9458    16117.588 
  427900   -254718.51    56.770358   -254661.74    277.44447    3773.3724    16117.588 
  428000   -254716.78    56.850562   -254659.93    277.83644    3730.8611    16117.588 
  428100   -254715.48     57.90522   -254657.57     282.9907    3801.6002    16117.588 
  428200   -254714.98    56.649928   -254658.33    276.85592    3818.1623    16117.588 
  428300   -254716.89     57.03168   -254659.86    278.72159     3743.985    16117.588 
  428400   -254715.86    55.516712   -254660.35    271.31774    3643.2311    16117.588 
  428500   -254716.57    56.879492   -254659.69    277.97783    3732.3083    16117.588 
  428600   -254715.18    55.781456    -254659.4    272.61158     3736.538    16117.588 
  428700   -254715.98     54.31577   -254661.66    265.44857    3628.9593    16117.588 
  428800   -254717.75      54.9954   -254662.75    268.77001      3607.15    16117.588 
  428900   -254716.53    55.253135   -254661.28     270.0296    3624.1894    16117.588 
  429000   -254715.21    56.599421   -254658.61    276.60908    3713.5772    16117.588 
  429100   -254715.37    56.744071   -254658.63      277.316    3750.7692    16117.588 
  429200   -254715.87    57.010505   -254658.86     278.6181    3766.7135    16117.588 
  429300   -254716.85    55.977048   -254660.88    273.56746    3673.5221    16117.588 
  429400    -254717.8    55.216006   -254662.59    269.84814    3647.1339    16117.588 
  429500   -254718.06    55.648431   -254662.41    271.96146    3651.9128    16117.588 
  429600   -254715.55    56.819755   -254658.73    277.68588    3772.0858    16117.588 
  429700   -254714.19    55.706334   -254658.49    272.24444    3655.8118    16117.588 
  429800   -254714.26    56.102093   -254658.15    274.17857    3681.6258    16117.588 
  429900   -254715.02    56.575002   -254658.45    276.48974    3713.2556    16117.588 
  430000   -254714.69    55.866905   -254658.83    273.02917    3665.4385    16117.588 
Loop time of 71975.8 on 1 procs for 430000 steps with 1584 atoms

Performance: 0.258 ns/day, 92.992 hours/ns, 5.974 timesteps/s
97.3% CPU use with 1 MPI tasks x 1 OpenMP threads

MPI task timing breakdown:
Section |  min time  |  avg time  |  max time  |%varavg| %total
---------------------------------------------------------------
Pair    | 67442      | 67442      | 67442      |   0.0 | 93.70
Kspace  | 221.67     | 221.67     | 221.67     |   0.0 |  0.31
Neigh   | 1029.2     | 1029.2     | 1029.2     |   0.0 |  1.43
Comm    | 11.212     | 11.212     | 11.212     |   0.0 |  0.02
Output  | 3258.7     | 3258.7     | 3258.7     |   0.0 |  4.53
Modify  | 11.46      | 11.46      | 11.46      |   0.0 |  0.02
Other   |            | 1.911      |            |       |  0.00

Nlocal:        1584.00 ave        1584 max        1584 min
Histogram: 1 0 0 0 0 0 0 0 0 0
Nghost:        10167.0 ave       10167 max       10167 min
Histogram: 1 0 0 0 0 0 0 0 0 0
Neighs:        816205.0 ave      816205 max      816205 min
Histogram: 1 0 0 0 0 0 0 0 0 0
FullNghs:  1.12545e+06 ave 1.12545e+06 max 1.12545e+06 min
Histogram: 1 0 0 0 0 0 0 0 0 0

Total # of neighbors = 1125448
Ave neighs/atom = 710.51010
Neighbor list builds = 43000
Dangerous builds not checked
Total wall time: 19:59:40
